24

C         -0.71240       -1.22660        0.00000
C          0.71240       -1.22660        0.00000
C         -0.71240        1.22660        0.00000
C          0.71240        1.22660       -0.00000
C         -1.40880       -0.00000       -0.00000
C          1.40880        0.00000        0.00000
C         -1.40790       -2.45590       -0.00000
C          1.40790       -2.45590       -0.00000
C         -1.40790        2.45590       -0.00000
C          1.40790        2.45590        0.00000
C         -0.70280       -3.67180       -0.00000
C          0.70280       -3.67180        0.00000
C         -0.70280        3.67180        0.00000
C          0.70280        3.67180       -0.00000
H         -2.43410        0.00000        0.00000
H          2.43410       -0.00000       -0.00000
H         -2.43160       -2.48160        0.00000
H          2.43160       -2.48160       -0.00000
H         -2.43160        2.48160       -0.00000
H          2.43160        2.48160        0.00000
H         -1.21430       -4.55650       -0.00000
H          1.21430       -4.55650        0.00000
H         -1.21430        4.55650        0.00000
H          1.21430        4.55650       -0.00000
