18

C         -0.70570        0.58670       -0.08950
C          0.69410        0.60670       -0.01540
C         -1.13440        1.91140       -0.20610
C          1.09570        1.94230       -0.09370
C         -1.58100       -0.50830       -0.05730
C          1.59150       -0.46320        0.11610
C         -0.02790        2.74780       -0.20700
C         -1.24510       -1.86260        0.07270
C          1.28230       -1.82590        0.21490
C          0.02400       -2.44420        0.19750
H         -2.10370        2.22890       -0.27800
H          2.05830        2.28660       -0.06990
H         -2.58300       -0.30610       -0.13510
H          2.58980       -0.23200        0.14770
H         -0.03840        3.76670       -0.27720
H         -2.03540       -2.51500        0.07880
H          2.08500       -2.45520        0.31380
H          0.03380       -3.46480        0.28790
