36

F         -4.97090       -1.02260       -1.84470
F         -5.20900       -1.16660        0.36420
F         -3.86200       -2.44710       -0.69500
O         -1.86010        2.18210       -0.14820
O         -3.56670        3.44140       -0.28100
N          2.32770       -0.09370        0.33430
C          0.97510       -0.09000        0.11290
C          0.22260        1.12140        0.08210
C          3.06130        1.08850        0.62080
C          3.11100       -1.28060        0.30670
C          0.26950       -1.31010       -0.08810
C          0.93030        2.42220        0.24910
C          2.23310        2.31180        1.06900
C          2.47650       -2.49980       -0.39660
C          0.97860       -2.61640       -0.05370
C         -1.18310        1.08560       -0.12540
C         -1.12790       -1.31060       -0.29240
C         -1.90650       -0.13330       -0.30690
C         -3.32670       -0.03750       -0.47620
C         -3.87350        1.20890       -0.46150
C         -3.09440        2.31330       -0.29530
C         -4.28640       -1.14530       -0.65700
H          3.62670        1.36070       -0.27600
H          3.79680        0.92620        1.41820
H          3.34040       -1.55820        1.34030
H          4.07170       -1.12320       -0.19790
H          1.15760        2.81200       -0.74640
H          0.30670        3.16570        0.75350
H          1.98210        2.20300        2.12840
H          2.82970        3.22310        0.96580
H          3.00210       -3.41560       -0.11080
H          2.58460       -2.38130       -1.47880
H          0.85660       -3.03810        0.94740
H          0.54390       -3.32900       -0.76160
H         -1.56290       -2.21700       -0.43030
H         -4.85480        1.35020       -0.56880
