14

C          0.67250       -0.02000       -0.00000
C         -0.67250        0.02000        0.00000
C          1.41030       -1.16270        0.00000
C         -1.41030        1.16270       -0.00000
C          2.74900       -1.19820        0.00000
C         -2.74900        1.19820       -0.00000
H          1.16390        0.84750       -0.00000
H         -1.16390       -0.84750       -0.00000
H          0.94320       -2.04280       -0.00000
H         -0.94320        2.04280        0.00000
H          3.23120       -2.06580        0.00000
H          3.29610       -0.36940       -0.00000
H         -3.23120        2.06580        0.00000
H         -3.29610        0.36940        0.00000
