15

C         -0.53050       -0.85440       -0.40340
C          0.38670        0.98090        0.24960
C         -0.71060        0.63400       -0.78400
C          0.89380       -0.98360       -0.69820
C         -0.79530       -0.75430        1.02910
C          1.46410        0.15760       -0.29210
C         -0.22480        0.38730        1.43530
H         -1.17780       -1.55020       -0.94220
H          0.61870        2.04490        0.33690
H         -0.47840        0.88960       -1.82840
H         -1.70430        1.05890       -0.58250
H          1.34820       -1.75980       -1.11780
H         -1.29620       -1.40100        1.59080
H          2.42570        0.39640       -0.35060
H         -0.21930        0.75360        2.35750
