18

C          0.68000       -0.02970        0.00000
C         -0.68000        0.02970       -0.00000
C          1.39000       -1.17240       -0.00000
C         -1.39000        1.17240        0.00000
C          2.74770       -1.23650       -0.00000
C         -2.74770        1.23650        0.00000
C          3.44860       -2.37780        0.00000
C         -3.44860        2.37780       -0.00000
H          1.18330        0.83120       -0.00000
H         -1.18330       -0.83120        0.00000
H          0.88650       -2.03280        0.00000
H         -0.88650        2.03280        0.00000
H          3.27420       -0.39100        0.00000
H         -3.27420        0.39100       -0.00000
H          4.44030       -2.35940       -0.00000
H          3.00530       -3.26680        0.00000
H         -3.00530        3.26680        0.00000
H         -4.44030        2.35940       -0.00000
