32

C         -0.71050       -1.23060        0.00000
C          0.71050        1.23060       -0.00000
C          0.72030       -1.23990        0.00000
C         -1.43400        0.00380       -0.00000
C          1.43400       -0.00380       -0.00000
C         -0.72030        1.23990        0.00000
C         -1.42630       -2.47040       -0.00000
C          1.42630        2.47040       -0.00000
C          1.36570       -2.50710        0.00000
C         -2.85400       -0.07080        0.00000
C          2.85400        0.07080       -0.00000
C         -1.36570        2.50710        0.00000
C         -0.73620       -3.69980       -0.00000
C         -2.83600       -2.48750       -0.00000
C          2.83600        2.48750        0.00000
C          0.73620        3.69980        0.00000
C          0.66070       -3.71750        0.00000
C         -3.54980       -1.28660        0.00000
C          3.54980        1.28660        0.00000
C         -0.66070        3.71750        0.00000
H          2.37830       -2.61900       -0.00000
H         -3.45730        0.75010       -0.00000
H          3.45730       -0.75010        0.00000
H         -2.37830        2.61900       -0.00000
H         -1.22990       -4.59670        0.00000
H         -3.36590       -3.36350        0.00000
H          3.36590        3.36350        0.00000
H          1.22990        4.59670        0.00000
H          1.16110       -4.61070       -0.00000
H         -4.57350       -1.29980       -0.00000
H          4.57350        1.29980       -0.00000
H         -1.16110        4.61070       -0.00000
