38

N          1.83470       -2.41120        0.75280
C          0.75870       -2.82130        0.06000
C         -0.36830       -3.37540        0.69170
C         -1.59880       -2.69360        0.61480
N         -1.68060       -1.41700        0.20040
C         -2.93390       -0.96400        0.24190
C         -3.30680        0.33740       -0.12410
C         -2.45580        1.42250       -0.39690
N         -1.11630        1.48180       -0.25610
C         -0.68550        2.73600       -0.49790
C          0.61520        3.24790       -0.34930
C          1.77910        2.53380       -0.03030
N          1.85000        1.20270       -0.00210
C          3.07820        0.77700        0.34250
C          3.85550        1.90810        0.57710
C          3.03960        3.01540        0.31750
C          2.48370       -1.54230       -0.04070
C          3.38390       -0.59210        0.47210
C          0.82760       -2.37450       -1.26260
C          1.93790       -1.55130       -1.32750
C         -2.88360       -3.09380        0.97190
C         -3.72790       -2.00800        0.71240
C         -2.90270        2.67600       -0.80190
C         -1.78410        3.50610       -0.86560
H         -0.29540       -4.26820        1.20410
H         -0.90940       -0.88230       -0.09720
H         -4.31970        0.51890       -0.20190
H          0.72610        4.26410       -0.49100
H          1.09560        0.60470       -0.20830
H          4.84100        1.92650        0.88280
H          3.32020        4.00690        0.37340
H          4.25520       -0.89280        0.93630
H          0.18260       -2.61030       -2.03290
H          2.29070       -1.04730       -2.15610
H         -3.15960       -4.01200        1.35350
H         -4.75110       -1.98490        0.84520
H         -3.87710        2.94120       -1.01480
H         -1.77330        4.50240       -1.13440
