23
1100863
Au      0.742605    1.863898    1.325504
N      -0.002081    1.891642   -1.567229
Cl      0.597247    2.417939    3.540653
C       0.841765    1.443533   -0.613167
N       1.743878    0.650725   -1.268393
C      -1.129983    2.781976   -1.327053
H      -1.190332    2.975343   -0.388487
H      -1.939492    2.359088   -1.620355
H      -1.000961    3.599165   -1.814045
C       0.370418    1.393090   -2.825660
C       2.810391   -0.086595   -0.631983
H       3.657357    0.237086   -0.949634
H       2.725070   -1.018965   -0.842275
H       2.759406    0.032788    0.318758
C       1.468145    0.631388   -2.629757
C       2.285979   -0.149650   -3.583818
H       1.874981   -0.127791   -4.450443
H       2.349449   -1.058479   -3.282769
H       3.166241    0.231201   -3.638052
C      -0.432848    1.699956   -4.039820
H      -0.623260    2.640733   -4.068597
H      -1.256924    1.207288   -4.012150
H       0.062430    1.450259   -4.823434
