27
1100555
Re      0.271580    0.625987    9.378073
P       1.573469    2.579610   11.751883
N       1.198534    1.682457   10.481181
O      -1.227060    1.353485    8.974090
O       1.174392    0.417090    7.945025
O      -0.010794   -0.885875   10.105834
C       2.600475    3.947664   11.239860
H       2.057079    4.562137   10.686538
H       2.889714    4.445822   12.045315
C       3.831038    3.542324   10.450377
H       4.296333    4.345955   10.136638
H       3.561521    2.999520    9.680289
H       4.430491    3.020668   11.024235
C       2.487353    1.588465   12.936335
H       3.335643    1.297090   12.518776
H       2.715291    2.154767   13.715550
C       1.748716    0.367744   13.428050
H       2.343041   -0.168011   13.995063
H       1.457279   -0.169186   12.661385
H       0.965743    0.646195   13.948287
C       0.109881    3.232150   12.539312
H      -0.406553    2.481389   12.924926
H       0.385817    3.820775   13.286582
C      -0.791639    4.018158   11.606080
H      -1.543484    4.389426   12.113767
H      -1.132704    3.424834   10.904444
H      -0.282066    4.747771   11.197648
