23
1504360
Fe      2.057259    1.193372    8.019384
C       1.569815   -0.590060    8.901010
H       2.122114   -1.108597    9.441150
C       0.059584    0.963449    8.223010
H      -0.557647    1.658689    8.226400
C       1.447591   -0.689981    7.545010
H       1.913570   -1.286351    7.004870
C       3.073934    2.693660    8.881800
C       0.516396    0.240862    7.100920
H       0.242920    0.364975    6.220650
C       3.947835    1.668155    8.496470
H       4.496315    1.167498    9.056950
C       3.838598    1.539835    7.116740
H       4.309924    0.945568    6.577730
C       2.427674    3.166970    7.756320
H       1.789818    3.844329    7.735980
C       0.721886    0.423875    9.331540
H       0.612648    0.698395   10.214070
O       2.344409    3.661316   10.905630
C       2.856986    3.009200   10.275090
C       2.882959    2.475937    6.689600
H       2.607191    2.601101    5.810460
H       3.473453    2.540097   10.756470
