25
1505734
Cr      0.000000    0.000000    0.000000
C       1.403933    1.600912   -0.223109
C       2.077568    0.449282    0.252972
H       1.663509    2.058808   -1.044240
H       2.836963    0.080400   -0.266085
C      -0.223109    1.403933    1.600912
C       0.252972    2.077568    0.449282
H      -1.044240    1.663509    2.058808
H      -0.266085    2.836963    0.080400
C       1.600912   -0.223109    1.403933
C       0.449282    0.252972    2.077568
H       2.058808   -1.044240    1.663509
H       0.080400   -0.266085    2.836963
C      -1.403933   -1.600912    0.223109
C      -2.077568   -0.449282   -0.252972
H      -1.663509   -2.058808    1.044240
H      -2.836963   -0.080400    0.266085
C       0.223109   -1.403933   -1.600912
C      -0.252972   -2.077568   -0.449282
H       1.044240   -1.663509   -2.058808
H       0.266085   -2.836963   -0.080400
C      -1.600912    0.223109   -1.403933
C      -0.449282   -0.252972   -2.077568
H      -2.058808    1.044240   -1.663509
H      -0.080400    0.266085   -2.836963
