24
1507497
Cr     -0.354890    1.556877    2.475120
Cl     -1.645749    1.756866    6.207646
O      -2.107922    3.828580    4.719787
O       1.473500    1.376862    4.894495
O      -0.190127    4.596198    2.316579
O      -1.613916    1.559849   -0.284639
O      -0.535439   -1.477808    2.533096
O       2.245060    1.480305    0.955486
N      -3.371137    1.302193    3.336953
C      -0.476578   -0.341243    2.520832
C      -2.041176    2.653848    4.692694
C      -0.263650    3.468313    2.403766
C      -3.733061    0.413772    2.223149
H      -4.063737    0.936932    1.489532
H      -4.413822   -0.199752    2.510798
H      -2.957959   -0.078474    1.941074
C      -4.528315    1.637253    4.186521
H      -4.260983    2.269801    4.856588
H      -4.855172    0.840623    4.611305
H      -5.223039    2.018922    3.644670
C       0.727770    1.469604    4.039352
C      -2.164482    1.734513    3.522029
C       1.266810    1.489817    1.540818
C      -1.197389    1.568291    0.777099
