29
1513034
Zn      0.731033   -4.789000   -0.155703
Cl      0.052630   -4.789000    1.964960
Cl     -0.718344   -4.789000   -1.796436
O       5.499856   -8.754292    1.910840
N       2.051993   -6.354620   -0.310419
C       2.209299   -7.041362   -1.449773
H       1.664869   -6.834861   -2.174659
C       2.851972   -6.666671    0.723654
H       2.748466   -6.196966    1.518810
C       3.812766   -7.642286    0.664479
C       4.636136   -7.916217    1.855364
H       4.477660   -7.407625    2.617234
C       3.959545   -8.349717   -0.517776
H       4.596956   -9.022476   -0.590511
C       3.144947   -8.038815   -1.586614
H       3.227401   -8.499517   -2.390399
O       5.499856   -0.823708    1.910840
N       2.051993   -3.223380   -0.310419
C       2.209299   -2.536638   -1.449773
H       1.664869   -2.743139   -2.174659
C       2.851972   -2.911329    0.723654
H       2.748466   -3.381034    1.518810
C       3.812766   -1.935714    0.664479
C       4.636136   -1.661783    1.855364
H       4.477660   -2.170375    2.617234
C       3.959545   -1.228283   -0.517776
H       4.596956   -0.555524   -0.590511
C       3.144947   -1.539185   -1.586614
H       3.227401   -1.078483   -2.390399
