21
1513767
Br      3.385381    2.247900    3.103777
C       1.783128    2.247900    2.095391
C       1.072866    1.077194    1.689233
H       1.320272    0.128580    1.886471
C      -0.107176    1.534866    1.021237
H      -0.825261    0.951311    0.641194
C       3.645690    2.247900   -0.953200
H       4.512981    2.247900   -0.454952
C       2.944103    1.092479   -1.401967
H       3.229847    0.143866   -1.270705
C       1.790210    1.532169   -2.127692
H       1.125556    0.944118   -2.588142
Ru      1.665569    2.247900   -0.056697
C       1.072866    3.418606    1.689233
H       1.320272    4.367220    1.886471
C      -0.107176    2.960934    1.021237
H      -0.825261    3.544489    0.641194
C       2.944103    3.403321   -1.401967
H       3.229847    4.351934   -1.270705
C       1.790210    2.963631   -2.127692
H       1.125556    3.551682   -2.588142
