28
1515358
Ru      0.729846    2.342127   10.400989
Cl     -0.107112    4.590571   10.541238
Cl      2.921360    3.319757   10.066791
S       0.516534    2.729997    8.075777
C      -1.001831    1.551762   11.451153
C      -0.002720    1.855053   12.425370
C       1.292462    1.355818   12.282366
C       1.605561    0.510277   11.174702
C       0.608280    0.155754   10.246912
C      -0.715308    0.691584   10.369930
C      -1.772967    0.372243    9.348541
C      -1.364233    0.576149    7.891684
C      -1.065394    2.023519    7.528711
C       1.680971    1.659108    7.220233
H      -1.843430    1.959445   11.521041
H      -0.222394    2.448664   13.117427
H       1.964220    1.646139   12.834398
H       2.427447    0.231127   11.038153
H       0.858593   -0.390348    9.517490
H      -2.032844   -0.570114    9.470318
H      -2.546951    0.898828    9.521214
H      -0.650571    0.020545    7.651729
H      -2.135509    0.315874    7.367458
H      -1.729967    2.598897    7.932276
H      -1.037663    2.137927    6.589127
H       1.618413    1.829757    6.306097
H       1.519934    0.744743    7.409664
H       2.529205    1.887539    7.541248
