21
1516285
Zn      3.154679    2.128603    2.744551
Cl      3.267717    4.251202    3.511455
Cl      1.071868    1.616674    2.097498
N       3.869026    0.977705    4.220304
C       3.839941    1.267814    5.506509
H       3.488003    2.061610    5.868196
N       4.375535    0.286812    6.220420
H       4.457716    0.273154    7.086290
C       4.772542   -0.689126    5.369405
H       5.180614   -1.504704    5.597509
C       4.465917   -0.256553    4.131175
H       4.633971   -0.724095    3.332977
N       4.379723    1.830959    1.191355
C       5.689675    1.689555    1.247143
H       6.194961    1.687200    2.040059
N       6.196691    1.551682    0.025418
H       7.037630    1.445835   -0.169455
C       5.171268    1.604547   -0.866090
H       5.232904    1.535317   -1.801282
C       4.048743    1.776328   -0.140735
H       3.179016    1.847325   -0.489658
