17
1516366
Mn      4.019557    0.026921    2.188804
O       6.945401   -0.260479    2.423651
O       3.920195    2.004257    4.367563
O       4.197785    2.143120    0.136634
C       3.864253   -2.099764    1.957963
C       3.254145   -1.711504    3.180327
C       2.173452   -0.832689    2.867737
C       2.127402   -0.676581    1.463649
C       3.178019   -1.464045    0.894359
C       5.805484   -0.132214    2.327703
C       3.973275    1.236809    3.509381
C       4.139186    1.317356    0.936828
H       4.602343   -2.662970    1.878059
H       3.539067   -2.011252    4.058118
H       1.528957   -0.394771    3.447827
H       1.567276   -0.146827    1.017151
H       3.332460   -1.549994    0.040896
