29
1517917
Cr     -1.729820   10.094439    9.044860
C      -0.761959   10.256729   10.600028
O      -0.137893   10.349259   11.573810
O       0.808496   10.600841    7.538791
N      -3.836969    9.626210    9.537662
C      -0.176931   10.379842    8.111344
C      -3.346919    8.464623   11.837097
H      -3.543787    7.512873   12.027775
H      -2.519650    8.703816   12.323923
C      -2.048189    7.898506    9.465703
H      -1.446211    7.301919    9.893689
C      -1.960665    8.089593    8.089782
H      -1.331894    7.587656    7.584252
B      -3.091276    8.628028   10.296087
C      -3.693281    9.793299    8.160312
H      -4.216854   10.445025    7.710245
O      -2.184825   13.053380    9.088893
C      -2.016654   11.912776    9.050705
C      -2.797291    9.022814    7.438906
H      -2.744076    9.123492    6.495778
C      -4.839606   10.505521   10.195812
H      -5.743269   10.121339   10.071638
H      -4.825374   11.397110    9.766397
C      -4.559573   10.658212   11.674865
H      -3.698123   11.130348   11.797870
H      -5.270544   11.209595   12.087524
C      -4.498055    9.321052   12.370034
H      -5.353165    8.842220   12.234299
H      -4.378001    9.462804   13.342257
