23
1518209
Au      4.020244    3.439985    2.497234
N       5.790105    2.566284    1.993444
C       6.891232    2.574149    2.759458
H       6.856277    2.972894    3.620469
F       0.817101    2.174617   -1.672261
Cl      4.814025    4.350965    4.541192
C       6.976525    1.423529    0.268406
H       7.000473    1.031075   -0.595621
C       8.117302    1.442404    1.064578
H       8.928148    1.063321    0.746411
C       8.064304    2.018894    2.325182
H       8.834399    2.027545    2.881597
Cl      1.991307    4.397918    2.857471
C       4.532607    2.013389    0.054284
C       4.301816    1.406226   -1.192749
H       5.008861    0.954000   -1.637580
C       3.045885    1.465212   -1.773291
H       2.880332    1.053883   -2.614699
C       2.047263    2.131361   -1.106799
C       2.210759    2.744815    0.132695
H       1.493491    3.194682    0.562447
C       3.464355    2.667740    0.708713
C       5.811735    1.981143    0.749426
