30
1518838
Pt      0.505382    2.467981    8.506478
O      -1.334528   -0.935064    9.685832
O      -0.373964    1.091103    9.745062
F      -0.148573    1.458957    5.847037
F       1.166957    0.184548    7.002587
F      -2.192702    1.013761    7.406024
F      -1.213461   -0.906977    6.982471
C       0.101650    1.053434    7.049524
C      -1.056392    0.263295    7.645180
C      -0.931269    0.097430    9.166170
C       2.965011    3.642109    9.793117
H       3.401000    4.327935   10.363069
H       3.455001    2.795329    9.923871
C       1.513506    3.452473   10.294898
H       1.414404    2.966423   11.164355
C       0.454832    4.263175    9.943987
H      -0.308861    4.249626   10.592168
C       0.549698    5.510908    9.156112
H       1.441516    5.911566    9.317040
H      -0.129759    6.144804    9.485790
C       0.363390    5.333734    7.650768
H      -0.600259    5.404939    7.441786
H       0.828511    6.071549    7.185866
C       0.863340    4.049510    7.108755
H       0.533688    3.849156    6.186774
C       2.088615    3.438943    7.406024
H       2.476422    2.893134    6.662851
C       3.126777    4.059198    8.377177
H       4.032602    3.803068    8.073203
H       3.056952    5.043693    8.324652
