21
1518546
Mo      0.367448    0.298565    2.623894
F      -1.241862   -2.183863    3.601102
F      -2.068700   -1.351961    1.803691
F      -0.281664   -2.547547    1.717024
O      -2.230658    0.992835    4.265554
O       1.408314    1.840830    5.174308
O       2.091781   -1.863495    4.131157
C       1.629447    0.103163    0.665080
C       1.898311    1.345464    1.274893
C       0.705164    2.111166    1.254168
C      -0.297183    1.335823    0.641215
C       0.278428    0.097369    0.281984
C      -0.878351   -1.544760    2.446790
C      -1.280278    0.724973    3.682118
C       1.052734    1.296711    4.237921
C       1.429917   -1.089990    3.619315
H       2.300383   -0.611625    0.466623
H       2.798875    1.674665    1.558761
H       0.620884    3.070968    1.522336
H      -1.222909    1.640758    0.418265
H      -0.180266   -0.634057   -0.222949
