25
1519188
Hg      1.980420    2.741093    2.799018
Br      2.453510    1.755040    0.377891
Br      4.311709    2.913392    4.022188
S       0.492722    1.006973    3.799746
S       0.286217    3.424257    5.600119
S       1.327752    5.177624    2.657843
S       2.598820    7.394724    1.140861
N      -0.891654    1.225145    6.056464
H      -1.160413    0.416137    5.948108
N       2.302478    5.078988    0.141696
H       2.021378    4.272890    0.036466
C      -0.093948    1.804688    5.164612
C      -1.289045    1.983168    7.200451
H      -0.838454    1.651296    7.992282
H      -2.246250    1.902689    7.335896
C      -0.917040    3.440145    6.959776
H      -0.525335    3.828382    7.757858
H      -1.700818    3.956455    6.714934
C       2.063963    5.749467    1.241924
C       3.066947    5.760210   -0.896019
H       2.715027    5.541042   -1.773284
H       3.998407    5.493001   -0.860595
C       2.930980    7.233289   -0.628255
H       2.201585    7.607538   -1.146071
H       3.749792    7.698292   -0.863721
