12
1527435
O       2.601116    5.019264    3.838940
C       3.242740    4.218624    3.425415
O       5.967334    5.069952    1.402415
C       5.448034    2.880000    4.118590
Cl      2.946162    2.880000    0.775285
O       6.120816    2.880000    5.017040
Mn      4.355196    2.880000    2.678095
C       5.379948    4.239360    1.851640
O       2.601116    0.740736    3.838940
C       3.242740    1.541376    3.425415
O       5.967334    0.690048    1.402415
C       5.379948    1.520640    1.851640
