18
1528338
N       8.220657   -2.337507   -3.127693
O       7.635712   -0.445856    2.563947
C       8.324852    0.139992    1.875737
C      10.027221    2.181634    2.240342
C       8.853059    0.118816   -0.802423
C       7.958916    2.345153    0.486140
O      11.117561    2.929824   -1.073314
N       8.495593   -0.503499   -1.711738
C      10.877200   -0.017646    1.067457
C       8.409244   -3.441558   -3.351727
C       7.909432   -0.989941   -2.921230
O       7.066354    3.029818    0.347033
C      10.502472    2.260453   -0.396819
O      10.398631    2.752188    3.148193
H       8.235383   -0.465854   -3.669475
O      11.743992   -0.719957    1.306134
Cr      9.433949    1.179988    0.757909
H       6.946229   -0.885241   -2.877302
