21
1539329
O      -3.124402    6.314934    7.231683
H      -1.387011    7.934131    6.626387
O      -1.011363    7.208670    6.625326
H      -3.599431    6.695180    7.231683
H      -1.067611    7.083753    7.507782
H      -1.907432    6.702948    6.849391
H      -3.415815    5.544453    7.380351
Cl      2.903395    2.145928    3.723095
O      -0.050554    3.268450   -0.672196
Cl      1.831699    4.965216    2.069684
O       1.382464   -0.386462    1.227581
Cl     -0.371013    2.616069    3.119924
O       4.199808    2.695804    0.190084
C       0.559100    2.986161    0.195393
Ru      1.618322    2.565963    1.731781
C       1.453827    0.698518    1.431470
C       3.238059    2.639893    0.733787
Cl      1.477383    4.609296    5.955253
Sb      0.531606    2.487902    6.415065
Cl     -1.688179    3.363539    6.386393
Cl      0.803023    2.838497    8.737487
