21
1539673
C       1.202143    5.791291    3.663454
O       0.368316    6.465134    3.315643
S       2.557750    9.600692    4.836867
S       2.557750    5.649430    6.400213
O       2.557750    3.094878    1.693324
F       2.557750    7.996405    7.349775
O       0.446072    2.824715    5.401308
F       2.557750   11.154911    4.515532
F       3.674975    9.897976    5.903168
C       1.237951    3.492299    4.963234
C       2.557750    7.356984    6.170345
C       2.557750    3.679014    2.674177
N       2.557750    7.943206    5.046276
F       3.657583    9.449443    3.726036
Mn      2.557750    4.612693    4.253891
F       1.440525    9.897976    5.903168
F       1.457918    9.449443    3.726036
C       3.913358    5.791291    3.663454
O       4.747184    6.465134    3.315643
O       4.669428    2.824715    5.401308
C       3.877549    3.492299    4.963234
