28
1542470
Cl      0.108946    1.575745    9.802142
C       1.327926    1.255261   11.071854
H       1.362212    0.282758   11.255055
H       2.220314    1.536494   10.747447
C       1.002402    1.995309   12.350796
H       0.112997    1.675968   12.676357
O       0.912856    3.367179   12.118681
H       1.676784    3.422054   11.790350
C       2.030325    1.656152   13.389547
C       3.374216    2.144690   13.504220
H       3.787346    2.786420   12.939391
C       3.978454    1.494576   14.619804
H       4.866068    1.631763   14.930598
C       3.028060    0.609720   15.184864
H       3.171200    0.049540   15.938893
C       1.826522    0.700416   14.436834
H       1.027741    0.213402   14.600653
Fe      2.315091    2.533768   15.206322
C       0.801044    3.883154   15.527038
H       0.017183    3.988331   14.999818
C       2.037348    4.557657   15.327686
H       2.225884    5.189479   14.644492
C       2.946558    4.117896   16.339672
H       3.845720    4.405227   16.448808
C       2.261328    3.169782   17.158306
H       2.624292    2.716303   17.909335
C       0.942009    3.022687   16.651390
H       0.270351    2.450312   17.002562
