25
1543424
C       6.870930    7.553457    8.158843
C       5.106234    8.259487    9.664438
H       5.016407    7.980751   10.579199
H       4.568250    7.696654    9.103935
H       4.815579    9.169976    9.577087
C       7.505057    8.821555   10.106047
H       7.862291    9.584252    9.645027
H       8.216476    8.211244   10.313506
H       7.081934    9.107184   10.918898
C       5.710913    6.906389    6.220132
Br      6.566879    5.088169   10.668613
Br      6.845447    3.339479    7.232072
Br      3.330012    4.514232    8.390445
N       5.988760    6.709589    7.524334
N       6.521694    8.153047    9.254373
N       8.106710    7.653005    7.675985
N       5.218192    5.904010    5.511617
N       5.805465    8.099444    5.660842
Zn      5.640124    4.909134    8.499149
H       8.218712    7.067965    6.988095
H       8.576520    8.239578    8.177042
H       5.668570    8.905789    6.066055
H       5.738154    8.078768    4.754574
H       5.397576    5.076989    5.859809
H       5.013982    6.187341    4.670862
