25
1544206
Au      9.754316    1.796966    5.737420
I      11.786628    1.184336    7.307413
I      11.257749    3.484163    4.502079
C       6.975672    1.480933    5.081896
C       8.663588   -0.328488    7.716684
H       9.549378   -0.392817    8.053966
C       7.929152    2.970079    3.474367
H       8.667768    3.450493    3.118045
N       8.389877    0.503682    6.703025
C       7.145021    0.600859    6.198916
C       8.097002    2.187183    4.585946
C       5.702661    1.595904    4.503439
C       6.364879   -1.016944    7.809165
H       5.671866   -1.538419    8.198127
C       6.670305    3.067257    2.858736
H       6.575953    3.598312    2.077185
C       7.640338   -1.105910    8.278821
H       7.839381   -1.699925    8.992372
C       5.571992    2.413018    3.361033
H       4.725729    2.511565    2.939430
C       4.597689    0.865018    5.082803
H       3.729799    0.963565    4.709254
C       4.773870    0.041061    6.149955
H       4.030331   -0.424297    6.516251
C       6.081846   -0.131395    6.727505
