19
1545491
Pd      2.784321    5.192570    1.497045
Cl      1.197090    6.768166    0.895712
N       1.492039    3.688453    1.063501
H       0.767747    3.750899    1.594053
H       1.220523    3.760266    0.208987
C       2.136862    2.396662    1.265302
C       1.472080    1.199892    1.021583
H       0.599560    1.204159    0.700018
C       2.117643    0.014467    1.259913
H       1.678239   -0.790978    1.109610
N       4.076603    3.688453    1.930589
H       4.800895    3.750899    1.400036
H       4.348120    3.760266    2.785102
C       3.431780    2.396662    1.728787
C       4.096563    1.199892    1.972506
H       4.969083    1.204159    2.294071
C       3.450999    0.014467    1.734177
H       3.890404   -0.790978    1.884480
Cl      4.371553    6.768166    2.098378
