23
1545470
Au     11.821008    1.877250    0.007044
Cl     13.892837    1.080855    0.583697
C      10.068764    2.608024   -0.560603
C       9.613049    2.984929   -1.814484
H      10.096515    2.922642   -2.629235
N       8.991001    2.906350    0.234287
N       7.945891    3.425106   -0.419731
N       8.356077    3.456552   -1.665644
C       7.483344    4.035776   -2.680042
H       6.555234    3.775110   -2.499910
H       7.748891    3.708428   -3.564537
H       7.559208    5.012516   -2.656948
C       8.845698    2.749193    1.649941
C       9.857891    3.177852    2.498871
H      10.662439    3.542481    2.147729
C       9.671352    3.062295    3.874918
H      10.355922    3.343193    4.470970
C       8.489725    2.538159    4.375824
H       8.368313    2.462688    5.315051
C       7.481252    2.122230    3.513037
H       6.670447    1.772377    3.863602
C       7.658279    2.217252    2.136874
H       6.979297    1.923927    1.540360
