27
1546652
Hg     13.767292   15.335669    3.933487
S      15.760416   16.598464    3.884353
C      12.004529   14.240687    3.906687
C      11.669310   13.394463    4.972407
H      12.229372   13.359715    5.738626
C      10.526703   12.603427    4.919722
H      10.316169   12.016794    5.638410
C       9.692743   12.674968    3.800744
H       8.905795   12.143523    3.758940
C      10.005478   13.506884    2.775110
H       9.431108   13.549809    2.018626
C      11.160349   14.306096    2.806607
H      11.360663   14.886598    2.081619
C      15.309710   18.132501    2.954926
H      15.514112   18.923537    3.513842
H      15.857507   18.189734    2.132586
C      13.860500   18.142722    2.589569
C      12.918206   18.686431    3.466311
H      13.208457   19.109543    4.265744
C      11.581417   18.616934    3.183990
H      10.953903   18.964418    3.809334
C      11.127645   18.054829    2.010037
H      10.195572   18.013948    1.827358
C      12.039278   17.547912    1.110960
H      11.734719   17.167724    0.294347
C      13.414903   17.596968    1.390991
H      14.040373   17.255617    0.762783
