25
1549190
Ni      3.995674   10.680000    3.436045
S       7.264466    8.954112    0.520217
S       5.368076   10.989934    1.816980
S       4.497270    8.587147    3.651828
S       8.127321    6.024374    0.619862
N       6.349191    7.185504    2.199756
C       5.688689    8.375256    2.458146
C       7.171102    7.347840    1.228730
C       6.059831    9.464616    1.647240
C       9.058350    6.801024   -0.667280
H       8.466112    7.065888   -1.374418
H       9.707463    6.181584   -1.010197
H       9.506599    7.572120   -0.316803
S       0.726882   12.405888    6.351872
S       2.623273   10.370066    5.055109
S       3.494078   12.772853    3.220261
S      -0.135972   15.335626    6.252227
N       1.642158   14.174496    4.672334
C       2.302659   12.984744    4.413943
C       0.820247   14.012160    5.643360
C       1.931517   11.895384    5.224850
C      -1.067002   14.558976    7.539369
H      -0.474764   14.294112    8.246507
H      -1.716115   15.178416    7.882286
H      -1.515250   13.787880    7.188893
