29
1549489
Pd      2.153455    4.218994    4.268557
F       3.335656    6.373731    0.395781
F       4.942699    6.922366    1.702813
F       5.244943    5.406484    0.203952
O       3.005193    5.336609    2.875727
O       3.216913    2.598628    3.854422
C       3.896448    4.848428    2.096715
C       4.447557    3.589565    2.069397
H       5.109009    3.413198    1.411185
C       4.103792    2.535439    2.950427
C       4.365364    5.893182    1.089336
C       4.845312    1.241839    2.847981
H       4.340164    0.538331    3.306425
H       5.726334    1.336969    3.267154
H       4.956433    1.002506    1.904630
F       0.971253    2.064257    8.141334
F      -0.635789    1.515622    6.834302
F      -0.938034    3.031505    8.333163
O       1.301716    3.101379    5.661388
O       1.089996    5.839360    4.682693
C       0.410461    3.589560    6.440399
C      -0.140648    4.848423    6.467718
H      -0.802100    5.024790    7.125930
C       0.203118    5.902549    5.586688
C      -0.058455    2.544806    7.447779
C      -0.538402    7.196150    5.689133
H      -0.033254    7.899657    5.230690
H      -1.419424    7.101019    5.269961
H      -0.649523    7.435483    6.632484
