26
1550536
Zn     -1.005815    4.702309   10.321854
Cl     -2.036266    6.666799   10.088404
Cl     -1.325951    3.617639   12.220577
N      -1.415594    3.523109    8.712121
N       0.974804    4.828885    9.822128
C      -2.281874    2.494712    8.774882
H      -2.727420    2.318150    9.595072
C      -2.543180    1.689719    7.685359
H      -3.177363    0.985235    7.743984
C      -1.862043    1.931217    6.505500
H      -2.016319    1.383898    5.744199
C      -0.955031    2.973107    6.441426
H      -0.471462    3.141665    5.641379
C      -0.761712    3.765067    7.556948
C       0.155587    4.975623    7.527143
H       0.529693    5.068351    6.615201
H      -0.380795    5.785814    7.715387
C       1.296942    4.908157    8.515172
C       2.616785    4.949557    8.106305
H       2.830830    5.016226    7.183124
C       3.626585    4.891291    9.057308
H       4.538114    4.932568    8.792805
C       3.291771    4.773992   10.390918
H       3.967017    4.712920   11.056410
C       1.957339    4.747159   10.738336
H       1.723633    4.669074   11.655766
