27
1550542
Pt      0.918887    1.880650    0.931385
S      -1.341302    1.880650    1.527500
C      -1.376559    1.880650    3.201494
N      -1.418733    1.880650    4.346825
S      -0.019063    1.880650   -1.204182
C       1.258472    1.880650   -2.288851
N       2.122196    1.880650   -3.022225
C       1.670090    1.187819    2.869213
H       0.980124    0.780094    3.451385
C       2.894823    0.336260    2.670025
H       3.567920    0.625128    3.321913
H       2.655275   -0.587515    2.892753
C       3.508877    0.327985    1.391600
H       3.518999   -0.596542    1.068372
H       4.441766    0.605569    1.503869
C       2.896510    1.186314    0.320512
H       2.921815    0.783103   -0.583078
C       1.670090    2.573481    2.869213
H       0.980124    2.981206    3.451385
C       2.894823    3.425040    2.670025
H       3.567920    3.136172    3.321913
H       2.655275    4.348815    2.892753
C       3.508877    3.433315    1.391600
H       3.518999    4.357842    1.068372
H       4.441766    3.155731    1.503869
C       2.896510    2.574986    0.320512
H       2.921815    2.978197   -0.583078
