23
1552173
Pt      3.087947    3.992104    4.494475
N       2.744793    5.405691    3.101188
C       3.132352    5.372657    1.838240
H       3.577140    4.629087    1.448812
S       2.759208    6.789715    0.977009
C       2.052332    7.489569    2.370386
H       1.671515    8.358574    2.414837
C       2.119399    6.605378    3.408610
H       1.767416    6.796299    4.270165
N       3.672777    5.508683    5.716073
N       4.258769    5.334202    6.763286
N       4.818025    5.270823    7.772745
N       3.431101    2.578516    5.887762
C       3.043542    2.611550    7.150710
H       2.598754    3.355121    7.540138
S       3.416686    1.194493    8.011941
C       4.123562    0.494638    6.618564
H       4.504379   -0.374366    6.574114
C       4.056495    1.378829    5.580340
H       4.408478    1.187909    4.718785
N       2.503116    2.475525    3.272877
N       1.917125    2.650006    2.225664
N       1.357869    2.713384    1.216205
