29
1558796
Ag      8.016617    1.123220    1.971871
N       8.924583    0.126302    3.662467
N       7.755063    2.387117    0.248820
O      12.258229   -0.317409    5.033433
O       9.053195    5.492821   -1.142800
C      10.922592   -0.409174    4.879028
C       8.353451    4.346777   -1.001179
C      10.257467    0.193258    3.804088
H      10.765606    0.663663    3.154010
C       8.197260   -0.549483    4.583001
H       7.253378   -0.597391    4.484653
C       7.513996    3.952335   -2.047598
H       7.427144    4.485116   -2.829462
C       8.452749    3.528512    0.119984
H       9.037084    3.786840    0.823170
C      10.173535   -1.103627    5.823165
H      10.595435   -1.523092    6.563723
C       6.816200    2.771496   -1.914829
H       6.247176    2.475401   -2.616048
C       6.942342    2.011192   -0.756294
H       6.442219    1.207152   -0.673681
C       8.793367   -1.171003    5.660892
H       8.263106   -1.643772    6.291300
H       9.243965    5.702908   -0.481904
H      12.610928   -0.097697    4.248619
N       9.356294    6.853227    1.915812
O       8.287818    6.230798    1.899093
O      10.214042    6.691417    0.997245
O       9.628475    7.658945    2.857000
