27
1560120
Zn      6.088447    1.957161    5.902964
I       8.255693    1.325526    4.742585
Cl      4.316046    0.626048    5.600184
N       5.555643    3.971209    5.709661
N       6.298889    2.300152    7.962855
C       4.106271    4.104719    5.410805
H       3.860454    5.052984    5.401175
H       3.586849    3.639435    6.099814
H       3.915529    3.708375    4.535110
C       6.312180    4.693181    4.666469
H       7.272364    4.616565    4.847213
H       6.112676    4.303853    3.789666
H       6.053625    5.638594    4.670604
C       5.873884    4.556768    7.041056
H       5.343723    5.382501    7.173172
H       6.832900    4.799895    7.073577
C       5.564716    3.577208    8.152654
H       5.818788    3.976375    9.022210
H       4.591563    3.397412    8.170807
C       7.710392    2.436565    8.355910
H       8.130896    3.144076    7.824123
H       8.176437    1.589187    8.200047
H       7.763321    2.668329    9.307244
C       5.680934    1.242227    8.790456
H       4.739273    1.139439    8.539344
H       6.152464    0.395684    8.643383
H       5.741816    1.490063    9.736436
