17
2000213
Pt      5.174419    0.161556    1.881423
S       5.813759    2.087302    2.782651
O       4.735810    3.009466    3.151936
C       6.946675    2.898636    1.628516
C       6.811598    1.847170    4.250148
S       3.327169    0.156299    3.102762
O       3.587137    0.312598    4.538441
C       2.178772    1.368327    2.502072
C       2.447803   -1.362643    2.803864
N       7.867577   -0.677769    1.213915
O       6.798808   -0.051152    0.665291
O       8.118708   -0.555572    2.385405
O       8.555099   -1.355539    0.445456
N       5.203365   -2.576092    0.999865
O       4.534196   -1.472052    0.804134
O       5.837810   -2.711077    2.017085
O       5.100798   -3.420106    0.148485
