12
2000638
I       0.000000    1.152562    8.048250
Mn      0.000000   -1.541290    8.048250
C       0.000000   -3.385692    8.048250
O       0.000000   -4.517499    8.048250
C      -1.349833   -1.439243    6.732629
O      -2.171698   -1.358385    5.974913
C       1.349833   -1.439243    9.363871
O       2.171698   -1.358385   10.121587
C      -1.349833   -1.439243    9.363871
O      -2.171698   -1.358385   10.121587
C       1.349833   -1.439243    6.732629
O       2.171698   -1.358385    5.974913
