24
2000291
Pt      0.699459    5.454872    1.036824
Br      2.977500    5.697140    1.771160
Br      0.148990    4.477840    3.172757
S      -3.670401    5.129548   -0.054301
N      -1.207670    5.334912    0.394478
N       0.938248    6.176070   -0.854437
N      -0.001336    6.714108   -2.762946
C      -2.309906    4.986324    0.974218
C      -2.702420    5.721390   -1.309605
C      -1.406978    5.774436   -0.918320
C      -0.211356    6.213960   -1.549166
C       1.317697    7.009650   -2.914669
C       1.921405    6.638328   -1.686515
C       3.308269    6.835356   -1.501254
C       4.005955    7.396128   -2.524982
C       3.395914    7.775028   -3.727582
C       2.043675    7.593156   -3.930411
H      -2.374088    4.728672    1.884553
H      -3.023443    5.986620   -2.172027
H      -0.676517    6.827778   -3.417749
H       3.746025    6.577704   -0.702715
H       4.940360    7.547688   -2.427560
H       3.927777    8.169084   -4.407938
H       1.639751    7.850808   -4.743324
