24
2000318
Pt      0.360026    3.172068    3.791770
Cl      0.902312    5.167435    4.831301
Cl     -0.684130    2.402190    5.692235
P       1.337936    1.553387    0.703706
O       0.126364    1.887742   -0.108380
N       1.273277    3.888850    2.106539
N      -0.198918    1.420650    2.889622
C       2.203191    3.006325    1.324982
C       0.838324    0.631400    2.178283
C       2.563340    0.559650   -0.091589
H       1.777253    4.649400    2.366040
H       0.587601    4.161500    1.511213
H      -0.875437    1.628725    2.259187
H      -0.557686    0.861000    3.571957
H       2.543756    3.501400    0.595326
H       2.904728    2.733675    1.892832
H       1.581549    0.516600    2.747660
H       0.500111   -0.215250    1.923362
H       3.280870    0.408975    0.503738
H       2.179697   -0.272650   -0.351090
H       2.888255    1.011675   -0.870092
O       6.890951    4.462850    3.816194
H       6.655833    5.065550    3.342986
H       7.126069    5.065550    4.289402
