23
2001300
Pd      4.196137    7.307574    9.142164
Cl      4.036234    6.501095   11.297963
Cl      5.712016    5.668605    8.562365
C       4.905881    8.496315    7.446331
C       3.778758    7.816657    7.026396
C       2.393805    8.405214    6.889034
C       1.535158    8.213424    8.139683
C       2.284996    8.357267    9.420420
C       3.298578    9.263476    9.688603
C       3.775210   10.339900    8.751925
C       4.986305    9.903577    7.942143
H       5.665181    8.055197    7.299812
H       3.926597    7.036310    6.632625
H       1.868682    8.079171    6.161669
H       2.566481    9.409717    6.684953
H       1.218191    7.300022    8.045492
H       0.875205    8.750437    8.137066
H       1.986953    7.851420   10.047053
H       3.536303    9.337795   10.413352
H       3.950251   11.063909    9.235963
H       3.015911   10.560459    8.137066
H       5.097480   10.500524    7.273648
H       5.617873   10.009061    8.424872
