23
2001902
Cd      0.098549    2.967272    5.222355
F       1.922648    5.127136    3.476901
F       3.959362    6.729950    4.220006
F       4.801214    6.749430    6.790397
F       3.491108    5.307910    8.669558
F       1.470757    3.684837    7.952390
F       0.250799   -0.213501    5.144672
F      -1.593020   -2.153709    4.873627
F      -4.206446   -1.500739    4.605176
F      -4.966652    1.095555    4.496239
F      -3.124961    3.048230    4.794518
C       1.618212    4.350274    5.699732
C       2.279047    5.145058    4.790628
C       3.330250    5.964776    5.127813
C       3.740784    6.001398    6.441540
C       3.088120    5.256483    7.393440
C       2.046561    4.447674    6.996599
C      -1.369414    1.477363    4.937174
C      -1.038805    0.148048    4.955330
C      -1.961514   -0.863354    4.825643
C      -3.284919   -0.529077    4.675206
C      -3.665214    0.787771    4.644082
C      -2.705476    1.762550    4.781550
