26
2001690
Zn     -1.736772    6.497052   10.538459
Cl     -0.280080    4.812031   10.215265
Cl     -2.547903    7.107398    8.543704
Cl     -3.208700    6.229732   12.191444
N       2.058420    9.711275    9.285208
N       2.385017   10.066375   11.588353
N       0.415307    8.424392    8.301937
N      -0.516629    8.016738   11.257337
N       0.631836    9.022381   12.876102
C       2.720895   10.239664   10.349487
C       1.278844    9.302200   11.716848
C       0.562770    8.685746   10.718213
C       0.971734    8.894545    9.384373
C      -0.434536    8.262467   12.553467
C       0.990024    9.509578   14.212737
H       2.320497    9.857576    8.519820
H       3.452642   10.766632   10.167917
H      -1.038190    7.940036   13.212705
H       0.772714    8.508196    7.528169
H      -0.308054    7.911628    8.352217
H       0.396942    9.133172   14.832868
H       1.904612    9.232600   14.330059
H       0.891232   10.411532   14.162456
O       1.332829    4.262620    7.440178
H       1.872619    3.820876    7.807508
H       0.908253    4.673116    7.849408
