29
2003889
Zn      5.544928    5.099507    8.548165
Cl      6.738032    6.929874    8.952855
Cl      6.783661    3.280385    8.197617
N       4.908528    4.074815    3.668248
C       3.788997    4.611361    3.133688
N       2.878310    5.332459    3.741921
C       3.145876    5.493789    5.056048
C       4.261946    4.987798    5.713969
C       5.150234    4.254478    4.989228
N       4.200454    5.378902    7.057222
C       3.081304    6.090223    7.151456
N       2.408776    6.173332    5.972682
N       5.672045    4.886356   13.506211
C       4.669011    4.210479   14.059618
N       3.596215    3.713044   13.447958
C       3.601013    3.953817   12.126977
C       4.598688    4.639471   11.446784
C       5.650838    5.129573   12.176664
N       4.282983    4.671248   10.082970
C       3.126812    4.025927   10.000730
N       2.676833    3.588379   11.196637
H       3.655858    4.447586    2.185700
H       5.930680    3.877796    5.375585
H       2.793395    6.497704    7.933250
H       1.595504    6.619313    5.795352
H       4.734260    4.066137   14.974367
H       6.355500    5.627131   11.736337
H       2.674054    3.884152    9.161025
H       1.879549    3.115632   11.333875
