17
2003289
Hg      2.485487    2.157748    5.659925
S       4.305225    2.085807    7.133770
C       3.724314    1.045255    8.526112
C       4.504551    1.299633    9.764503
H       3.819794    0.082755    8.277075
H       2.762754    1.250732    8.707229
H       4.159068    0.711883   10.502558
H       5.468191    1.087573    9.601498
H       4.411150    2.255549   10.031652
S       0.665749    2.085807    4.186081
C       1.246660    1.045255    2.793739
C       0.466423    1.299633    1.555348
H       1.151179    0.082755    3.042776
H       2.208220    1.250732    2.612622
H       0.811906    0.711883    0.817293
H      -0.497217    1.087573    1.718353
H       0.559823    2.255549    1.288199
