27
2003016
I       1.598583    0.533224    2.304030
I       4.089745   -1.572279    5.308454
Zn      2.176985   -1.537077    3.644465
O       2.414261   -3.094152    2.397945
O       0.515736   -2.090162    4.580974
N       3.660954   -4.739162    1.501476
N      -0.897894   -3.598202    5.474499
C       3.459959   -3.725584    2.303735
H       4.174840   -3.461232    2.852804
C       4.925321   -5.473321    1.505892
H       5.194201   -5.656861    0.591758
H       4.815929   -6.314317    1.987248
H       5.607251   -4.944617    1.943087
C       2.589773   -5.247321    0.656528
H       2.156898   -5.985589    1.101082
H       2.960545   -5.547285   -0.186948
H       1.947658   -4.540555    0.485772
C       0.142205   -3.233862    4.756146
H       0.638915   -3.915972    4.342504
C      -1.700686   -2.606539    6.125139
H      -1.396200   -2.492854    7.037801
H      -2.630057   -2.890067    6.123667
H      -1.624073   -1.764174    5.652615
C      -1.352230   -5.035017    5.490691
H      -2.123036   -5.119939    6.079506
H      -0.641082   -5.595224    5.829260
H      -1.583904   -5.313066    4.592750
