27
2004918
Pt      1.109443    2.360850    0.482153
N       0.669554    3.800024    1.841411
O       1.540765    3.774527   -0.873509
O       2.907552    4.599880   -2.379300
C       2.555641    3.658373   -1.672103
C       3.387311    2.360850   -1.693079
C       4.296745    2.360850   -2.894716
C       4.250615    2.360850   -0.428514
H       1.383921    4.249530    2.127586
H       0.065901    4.438398    1.603181
H       0.131802    3.494058    2.337348
H       4.744872    3.116322   -2.846770
H       4.810773    3.116322   -0.464473
H       3.756357    2.360850   -3.745750
H       3.624555    2.360850    0.494439
O       1.540765    0.947173   -0.873509
O       2.907552    0.121820   -2.379300
C       2.555641    1.063327   -1.672103
H       4.744872    1.605378   -2.846770
H       4.810773    1.605378   -0.464473
N       0.669554    0.921676    1.841411
H       1.383921    0.472170    2.127586
H       0.065901    0.283302    1.603181
H       0.131802    1.227642    2.337348
O       1.456412    2.360850    4.445456
H       1.120317    3.021888    5.019305
H       1.120317    1.699812    5.019305
