28
2004251
Cr     12.671311    2.556666    3.753110
O      11.134042    5.076128    4.191422
O      13.493917    3.609614    1.073912
O      10.211407    1.422389    2.522857
C      13.028033   -0.873852    3.796848
C      13.193985    0.501816    4.451990
C      14.352607    1.055544    3.852684
C      14.893095    0.017304    2.910917
C      15.313305   -1.134277    3.778236
C      14.224718   -1.669836    4.326359
C      13.536547   -0.579684    2.388850
C      12.507338    1.143794    5.479373
C      13.002150    2.387952    5.917685
C      14.121187    2.960714    5.378868
C      14.826105    2.307488    4.332874
C      11.741520    4.092396    4.010886
C      13.190940    3.218544    2.103156
C      11.158402    1.864506    2.997463
H      12.074948   -1.283957    3.777305
H      15.785280    0.485377    2.306027
H      16.147635   -1.673297    3.795917
H      14.291707   -2.530710    5.057811
H      13.292948    0.308011    1.925411
H      13.670528   -1.444884    1.654607
H      11.555775    0.736285    5.919547
H      12.338340    2.766044    6.879926
H      14.558145    3.977324    5.645020
H      15.671093    2.888038    3.672148
