27
2004739
Pd      0.445352    1.973617    3.336194
Cl      1.614371    1.837015    5.354351
Cl      2.248318    3.025955    2.294918
S      -1.205861    0.852857    4.406242
S      -1.336735    4.383539    4.006172
S      -0.495507    2.159848    1.285154
C      -1.938909    2.068298    5.518763
C      -2.497963    3.328310    4.895367
C      -1.987325    4.360652    2.326430
C      -1.011440    3.888449    1.241311
C      -2.063732    1.276876    1.057717
C      -2.232432    0.071071    1.930471
C      -2.613707    0.398723    3.354005
H      -1.316310    2.312832    6.192852
H      -2.700705    1.626210    6.001038
H      -3.192430    3.071730    4.274712
H      -2.920090    3.866766    5.576307
H      -2.330020    5.240010    2.082552
H      -2.761225    3.758352    2.274366
H      -1.376830    4.095640    0.383628
H      -0.219385    4.457020    1.356399
H      -2.178720    1.023910    0.137010
H      -2.814180    1.879176    1.260492
H      -2.852005   -0.542070    1.534512
H      -1.369265   -0.373426    1.959243
H      -3.275645    1.120278    3.343044
H      -3.094085   -0.373426    3.740373
