17
2004267
Cr      2.014339    1.722611    1.945185
C       1.390293    3.495885    1.666672
O       0.996848    4.556111    1.537110
C       3.680074    2.133074    1.097306
O       4.659127    2.377779    0.579060
C       2.741466    2.283218    3.618907
O       3.167091    2.637542    4.606042
C       0.337976    1.313068    2.775436
O      -0.653289    1.096677    3.269003
C       1.325248    1.196787    0.243258
O       0.941024    0.902806   -0.780894
C       2.625501   -0.099663    2.306547
N       2.962633   -1.187502    2.543635
C       3.605490   -2.406871    2.845945
F       3.133183   -2.880113    4.004066
F       3.311901   -3.309586    1.953117
H       4.456318   -2.288015    2.845945
