27
2004660
Ti     12.061265    2.166420    7.277729
Cl     11.915404    0.618689    5.434498
O      12.609597    0.880597    8.473803
C      13.702458    0.128683    8.809852
C      14.302288    2.471474    6.516058
C      14.233527    3.058118    7.784143
C      13.329393    4.110293    7.705693
C      12.891956    4.226360    6.377892
C      13.483008    3.215818    5.657789
C      10.315613    2.279711    8.889473
C      10.488247    3.508510    8.432822
C      10.082996    3.522387    7.112047
C       9.708468    2.269618    6.792391
C       9.859157    1.496258    7.893037
H      13.363042   -0.673694    9.415207
H      13.959946   -0.709019    8.054621
H      14.378364    0.570243    9.484290
H      14.905044    1.577000    6.414190
H      14.843598    2.760381    8.782921
H      13.098239    4.787772    8.524152
H      12.128270    4.838236    5.894311
H      13.275262    3.117414    4.626226
H      10.637473    1.923940    9.813313
H      10.637473    4.501389    8.889473
H      10.135664    4.511482    6.688181
H       9.717246    2.287281    5.632029
H       9.781618    0.529872    8.111995
