27
2004927
Ru      0.000000    0.000000    0.000000
Cl      0.809639    1.040405    2.017663
N       0.806573   -1.763122    0.569460
N      -1.653238   -0.583997    1.003085
C       1.126136   -2.779550    0.932555
C       1.517630   -4.096539    1.428873
C      -2.472782   -1.010434    1.640462
C      -3.511658   -1.571310    2.510324
H       2.393776   -4.118803    1.502015
H       1.308912   -4.666835    0.809782
H       1.108448   -4.315752    2.246492
H      -4.150784   -2.123624    2.050577
H      -4.032864   -0.899115    2.847298
H      -3.089504   -2.063683    3.186884
Cl     -0.809639   -1.040405   -2.017663
N      -0.806573    1.763122   -0.569460
N       1.653238    0.583997   -1.003085
C      -1.126136    2.779550   -0.932555
C      -1.517630    4.096539   -1.428873
C       2.472782    1.010434   -1.640462
C       3.511658    1.571310   -2.510324
H      -2.393776    4.118803   -1.502015
H      -1.308912    4.666835   -0.809782
H      -1.108448    4.315752   -2.246492
H       4.150784    2.123624   -2.050577
H       4.032864    0.899115   -2.847298
H       3.089504    2.063683   -3.186884
