29
2004657
Cr     -0.033539    2.824177    2.441907
C      -1.582845    3.671013    1.909923
O      -2.555262    4.183378    1.573001
C       0.699965    4.508976    2.738148
O       1.128688    5.549009    2.889398
C      -0.660776    2.788334    4.175545
O      -1.050155    2.744478    5.259330
C      -0.504277    1.071539    1.241294
C       0.056918    0.596029    2.461725
C       1.328061    1.094552    2.875838
C       1.993833    2.028330    2.075777
C       1.466896    2.463706    0.841785
C       0.226008    1.978869    0.419328
C      -1.844873    0.640175    0.754164
O      -2.555285   -0.146947    1.373768
O      -2.189049    1.167731   -0.389078
C      -0.654021   -0.426395    3.295166
C      -0.135188   -1.609440    3.534036
C       1.990899    0.661761    4.157813
H      -2.870993    0.950885   -0.688449
H       2.935813    2.431040    2.409570
H       2.017133    3.166048    0.229483
H      -0.179710    2.287272   -0.531983
H      -1.614783   -0.187682    3.713450
H      -0.703215   -2.335420    4.099399
H       0.844420   -1.853848    3.171036
H       1.281288    0.723748    4.965175
H       2.337265   -0.354522    4.057675
H       2.825208    1.309860    4.370606
