25
2005035
Pd     -0.096088   13.081152    8.415975
S      -0.738625   15.148203    7.869322
S      -1.728953   12.038105    7.299528
O       1.423226   13.973212    9.426019
O       0.530811   11.223035    8.964211
N       1.398112   15.325648    9.447774
N      -0.212218   10.200599    8.494493
C       0.430398   16.009137    8.798079
C       0.465096   17.414428    8.894990
C       1.437460   18.040867    9.608962
C       2.415584   17.298369   10.228991
C       2.391655   15.939222   10.143947
C      -1.273456   10.415937    7.686576
C      -1.970008    9.297297    7.212902
C      -1.605314    8.043022    7.576810
C      -0.520045    7.861243    8.424282
C       0.165674    8.951917    8.864334
H      -0.175754   17.730444    8.494493
H       1.395440   19.114761    9.611929
H       3.091047   17.758410   10.630477
H       3.016929   15.385495   10.521700
H      -2.670369    9.438525    6.585951
H      -2.009761    7.299126    7.248502
H      -0.131145    6.977517    8.632936
H       0.874432    8.921154    9.315264
