19
2005037
Au      1.319409    1.688454    0.780693
Cl      3.579974    1.784853    0.621046
Cl      1.113734    2.811655   -1.174549
Cl     -0.945702    1.508800    0.952621
N       1.484642    0.667494    2.516640
C       1.198710    1.225443    3.740311
C       1.330995    0.439641    4.832404
C       1.753915   -0.848609    4.775387
C       2.048111   -1.397794    3.513997
C       1.917007   -0.628058    2.445588
C       0.793602    2.648068    3.846450
O       1.351283    3.484992    2.906109
H       1.122379    0.800409    5.663974
H       1.846916   -1.355437    5.549940
H       2.328199   -2.281457    3.433296
H       2.127492   -0.982984    1.611386
H      -0.172135    2.699189    3.771889
H       1.035373    2.972321    4.728896
H       2.041582    3.769809    3.251719
