29
2005842
Fe      5.518867    8.872424    3.636663
C       4.056858    8.412624    4.625499
C       5.811792   10.463998    4.451108
C       6.589527    7.876213    4.705428
O       3.146089    8.133797    5.231713
O       6.001587   11.461138    4.945214
O       7.288963    7.257481    5.347973
C       6.702127    8.115208    1.956702
C       6.941015    9.486774    2.089571
H       7.831964    9.804106    2.345967
C       5.952646   10.444081    1.492699
H       6.120166   11.350935    1.795806
H       5.991582   10.424165    0.523171
C       4.623492    9.950158    1.987843
H       3.904871   10.591462    2.164310
C       4.333675    8.614442    1.928675
H       3.403952    8.323665    2.033517
C       5.356960    7.647840    1.923485
H       5.151435    6.693188    2.002376
O       7.635939    7.163211    2.058430
C       9.007366    7.558881    2.000300
H       9.567531    6.783475    2.084381
H       9.195261    8.169646    2.716546
H       9.181656    7.989072    1.159489
B       2.756656    4.684302    2.033517
F       1.797702    4.564805    1.101359
F       3.967730    4.554183    1.465710
F       2.589729    3.732305    2.966713
F       2.659248    5.889899    2.620009
