24
2005233
Fe      1.817647    1.173969    7.896008
N       1.627778    3.703144   11.065057
C       1.341600    3.282973   10.052201
C       0.961556    2.778142    8.768726
C      -0.035104    1.756981    8.510459
C      -0.041210    1.520766    7.105711
C       0.924926    2.397689    6.511697
C       1.547648    3.163820    7.521184
C       3.110559    0.347006    9.241467
C       2.203948   -0.607261    8.805782
C       2.363445   -0.726414    7.423492
C       3.335685    0.154690    7.004650
C       3.800437    0.829889    8.144394
H      -0.570829    1.336811    9.143775
H      -0.576171    0.907234    6.655428
H       1.112658    2.454130    5.602148
H       2.214632    3.799302    7.397665
H       3.234950    0.615623   10.122943
H       1.602594   -1.078646    9.334668
H       1.888772   -1.307545    6.874394
H       3.629494    0.278023    6.131034
H       4.457501    1.488365    8.157868
X       0.671563    2.323480    7.684005
X       2.962509    0.000000    8.124182
