24
2006635
Fe      1.393623    7.874090    3.786117
O       0.078095   10.426460    4.271571
O       2.511725    8.558148    1.183094
N      -0.158104    7.034720    2.927730
C       0.561131    9.420358    4.061529
C       2.061602    8.303482    2.199013
C      -1.477351    7.336208    3.115268
C      -2.259622    6.527672    2.325466
C      -1.394989    5.679166    1.629970
C      -0.118994    6.013772    2.029693
C       1.426374    7.298522    5.819024
C       1.559228    6.162232    5.017435
C       2.707958    6.306124    4.210487
C       3.299254    7.544052    4.550199
C       2.516434    8.171010    5.526466
H      -1.741536    8.028260    3.675737
H      -3.181975    6.532240    2.239735
H      -1.550039    5.036220    0.996628
H       0.746826    5.664320    1.736063
H       0.742519    7.445840    6.440578
H       1.024107    5.470180    4.983142
H       3.004913    5.732840    3.568573
H       3.991998    7.914060    4.190126
H       2.661574    8.953280    5.926189
