25
2006585
Ti      1.075072    0.334212    2.578500
Cl     -1.080552    0.929161    2.578500
Cl      1.819675    1.467032    0.809236
C       0.286808   -1.796190    2.578500
C       1.093340   -1.693867    3.722323
C       2.416856   -1.557026    3.283978
C       3.857288   -1.670444    3.715103
C       4.637332   -0.398194    3.348956
C       4.336823   -2.614769    2.578500
H      -0.685963   -1.919470    2.578500
H       0.788264   -1.716058    4.653677
H       3.998865   -2.002067    4.626860
H       4.188852    0.399427    3.697569
H       5.552559   -0.437644    3.697569
H       5.305941   -2.757774    2.578500
H       3.878296   -3.481427    2.578500
C       1.093340   -1.693867    1.434677
C       2.416856   -1.557026    1.873022
C       3.857288   -1.670444    1.441897
C       4.637332   -0.398194    1.808044
H       0.788264   -1.716058    0.503323
H       3.998865   -2.002067    0.530140
H       4.188852    0.399427    1.459431
H       5.552559   -0.437644    1.459431
Cl      1.819675    1.467032    4.347764
