27
2006924
Cd      0.151879    2.280973    2.554963
Cl     -2.253880    2.302020    1.851214
Cl      0.150396    2.251156    5.041952
S       1.224566    0.154783    1.715964
N       0.200712   -2.315174    1.448813
H       1.060117   -2.582647    1.443230
N      -1.328367   -0.837497    1.868941
H      -1.715491   -0.057002    1.642825
N      -1.337754    5.388919    1.783798
H      -1.664402    4.564577    1.628868
N       0.169204    6.923599    1.684698
H       0.964010    7.246613    1.956874
C      -0.022026   -1.031890    1.687490
S       1.227038    4.482143    1.902439
C      -0.991540   -3.117593    1.655387
H      -0.974726   -3.563381    2.517975
H      -1.100633   -3.779698    0.954709
C      -2.091878   -2.050625    1.596765
H      -2.509838   -2.019931    0.723011
H      -2.770978   -2.202631    2.272319
C      -0.032034    5.634468    1.799152
C      -2.119489    6.603509    1.581411
H      -2.816710    6.688282    2.251382
H      -2.521442    6.619586    0.699282
C      -1.060361    7.711402    1.734946
H      -1.104996    8.351582    1.007748
H      -1.151111    8.177652    2.580785
