30
2006050
Re      2.994773    0.927307   -4.154680
O       2.802358    2.353543   -6.839346
O       2.948399   -1.837160   -5.444904
O      -0.034480    0.862578   -3.976109
O       4.292488   -1.861888   -1.602876
O      -1.187128   -2.407363   -1.882008
O      -0.735867   -1.387688    0.018284
N       2.465699   -0.904761   -0.693564
C       2.840681    1.786249   -5.827644
C       2.935103   -0.760756   -4.978059
C       1.115620    0.882942   -4.085811
C       3.282114    1.671335   -2.008776
C       3.959001    2.563005   -2.835202
C       4.981024    1.869161   -3.482447
C       4.971558    0.542566   -3.063139
C       3.900320    0.401470   -2.134324
C       3.571655   -0.868396   -1.457825
C       1.975186   -2.135353   -0.092638
C       0.925468   -2.807378   -0.954412
C      -0.404643   -2.106261   -0.891029
H       2.496108    1.832796   -1.633349
H       3.746666    3.534678   -2.888834
H       5.473308    2.021894   -3.985860
H       5.538445   -0.145460   -3.083861
H       1.921097   -0.101822   -0.694783
H       2.672879   -2.574642    0.024378
H       1.611347   -1.963710    0.828864
H       0.789411   -3.854690   -0.658215
H       1.096257   -2.894654   -1.986835
H      -1.920339   -2.312814   -1.791809
