21
2006420
Zn     -0.470229    0.695032    2.699856
O      -1.465120   -0.601224    1.569157
O       1.011127    2.302027    2.814330
O       0.824893    1.150214    1.007586
C       1.368290    2.100020    1.623154
C       2.328959    3.038100    0.950349
H      -2.194950   -1.091584    1.933097
H      -1.212123   -0.737139    0.662005
H       3.144507    3.080740    1.433084
H       2.492207    2.763072    0.062637
H       1.948402    3.929276    0.928751
O       0.524662   -0.601224    3.830556
O      -1.951586    2.302027    2.585383
O      -1.765352    1.150214    4.392126
C      -2.308749    2.100020    3.776559
C      -3.269418    3.038100    4.449363
H       1.254491   -1.091584    3.466616
H       0.271664   -0.737139    4.737708
H      -4.084966    3.080740    3.966629
H      -3.432666    2.763072    5.337076
H      -2.888860    3.929276    4.470962
