19
2007647
Cd      4.491193    1.309838   10.156500
Br      1.820754    1.454178   10.156500
Br      4.932351   -1.290074   10.156500
S       5.168592    2.191448    7.892278
C       4.957150    1.018164    6.682977
N       5.013273    1.377516    5.433050
H       4.919299    0.740265    4.761367
H       5.149014    2.269308    5.213670
N       4.760064   -0.287482    6.926733
H       4.679142   -0.837889    6.272654
H       4.715688   -0.569573    7.736545
S       5.168592    2.191448   12.420722
C       4.957150    1.018164   13.630023
N       5.013273    1.377516   14.879950
H       4.919299    0.740265   15.551633
H       5.149014    2.269308   15.099330
N       4.760064   -0.287482   13.386267
H       4.679142   -0.837889   14.040346
H       4.715688   -0.569573   12.576455
