22
2007987
Pt      0.247652    1.641729    1.956391
I      -0.704891    0.405561    4.009606
I       2.671876    0.864709    2.420623
N      -1.542144    2.413878    1.336136
H      -2.227237    2.142286    1.869392
N       0.525717    2.788991    0.179749
C      -1.713865    1.953512   -0.027562
H      -2.404034    2.462594   -0.470943
H      -1.957440    1.016946   -0.037148
C      -0.427519    2.143504   -0.718997
H      -0.082964    1.283667   -0.994612
H      -0.566143    2.691559   -1.497910
C       0.011723    4.100669    0.647097
H      -0.124813    4.688915   -0.107850
H       0.659624    4.513537    1.246261
C      -1.348388    3.887537    1.402044
H      -1.286583    4.190794    2.324757
H      -2.068340    4.356428    0.958663
C       1.864023    2.922960   -0.411027
H       2.302266    2.070430   -0.406233
H       2.375112    3.556268    0.100660
H       1.783308    3.239614   -1.315764
