19
2007646
Cd     -0.000000   -1.540351    0.020283
S      -2.263560   -0.698330    0.728762
Cl     -0.000000   -1.413578   -2.528889
Cl     -0.000000   -4.024877    0.493426
C      -3.439517   -1.935721    0.510329
N      -4.709614   -1.569346    0.443368
H      -5.324414   -2.164181    0.355800
H      -4.919456   -0.736718    0.486600
N      -3.152890   -3.222702    0.440768
H      -3.784126   -3.800151    0.353264
H      -2.334296   -3.483598    0.482244
S       2.263560   -0.698330    0.728762
C       3.439517   -1.935721    0.510329
N       4.709614   -1.569346    0.443368
H       5.324414   -2.164181    0.355800
H       4.919456   -0.736718    0.486600
N       3.152890   -3.222702    0.440768
H       3.784126   -3.800151    0.353264
H       2.334296   -3.483598    0.482244
