19
2007227
W       1.994865    2.761750    0.203155
O       3.771309    2.761750    2.744479
O       0.140584    0.653982    1.548320
C       3.085583    2.761750    1.827005
C       0.839438    1.438319    1.045232
C       3.839635    2.054742   -1.075020
C       2.721750    1.347734   -1.548982
C       1.588724    2.071313   -2.032874
H       4.739869    1.579721   -0.754632
H       2.778467    0.530256   -1.496026
H       0.945939    1.425063   -2.363191
C       3.839635    3.468758   -1.075020
C       2.721750    4.175766   -1.548982
C       1.588724    3.452187   -2.032874
H       4.739869    3.943779   -0.754632
H       2.778467    4.993244   -1.496026
H       0.945939    4.098437   -2.363191
O       0.140584    4.869518    1.548320
C       0.839438    4.085181    1.045232
