21
2007250
Pd      0.449209    2.303279    8.104482
Cl      1.205385    1.679607    6.034792
Cl     -0.629548    4.136735    7.259723
N      -0.088218    2.719192    9.975723
N      -0.752585    3.702326   10.591468
H      -1.213973    4.328316   10.178239
C      -0.619087    3.604565   11.929545
H      -1.002406    4.187981   12.573986
C       0.173313    2.511842   12.193553
H       0.448116    2.190175   13.044609
C       0.487151    1.974154   10.934186
N       1.398216    0.778466    9.102530
C       1.305314    0.865663   10.465204
C       1.953286   -0.029959   11.280184
H       1.885366    0.048881   12.224709
C       2.704310   -1.045418   10.721012
H       3.163356   -1.665101   11.275265
C       2.780037   -1.149487    9.346860
H       3.280459   -1.848010    8.943469
C       2.113328   -0.217598    8.566315
H       2.166415   -0.288554    7.620151
