27
2008074
Re      1.329554    0.118318    2.766915
Br     -1.235307   -0.050071    2.306487
F       3.558906    1.907440    1.009254
F       5.527838    3.504981    1.670423
F       4.724518    2.727102    6.232705
F       2.746368    1.115633    5.633573
O      -0.024104    1.520241    5.170586
O       0.781455    2.200624    0.545543
C       0.492781    1.002816    4.289510
C       1.014411    1.470797    1.383168
C       2.952292    1.465226    3.285326
C       3.764545    2.114967    2.348730
C       4.814010    2.931148    2.640813
C       5.153106    3.202744    3.987772
H       5.843394    3.783541    4.214679
C       4.411301    2.562752    4.926782
C       3.384255    1.743786    4.591249
C       1.978600   -1.638629    1.400065
H       1.907470   -1.690163    0.424847
C       1.064964   -2.139341    2.353558
H       0.213854   -2.575984    2.141134
C       1.582129   -2.002150    3.611203
H       1.162310   -2.335029    4.431931
C       2.794638   -1.367730    3.548441
H       3.418319   -1.232628    4.294338
C       3.072022   -1.151846    2.155618
H       3.916942   -0.821056    1.788704
