21
2009183
Ti      0.000000    4.781500   -0.084516
Cl     -0.619874    3.205613    1.367434
Cl      2.118109    3.924081   -0.326158
O       0.509230    5.998392   -1.809393
C       0.595775    7.447664   -1.763632
H       1.147560    7.659963   -0.961896
H      -0.334705    7.726904   -1.673980
H       1.013678    7.679089   -2.649885
C      -0.056422    5.520720   -3.050752
H       0.372957    5.929060   -3.747194
H      -1.071056    5.842993   -2.997755
O      -0.509230    3.564608   -1.809393
C      -0.595775    2.115336   -1.763632
H      -1.147560    1.903037   -0.961896
H       0.334705    1.836096   -1.673980
H      -1.013678    1.883911   -2.649885
C       0.056422    4.042280   -3.050752
H      -0.372957    3.633940   -3.747194
H       1.071056    3.720007   -2.997755
Cl      0.619874    6.357387    1.367434
Cl     -2.118109    5.638919   -0.326158
