23
2009843
Pt     -0.719528    1.816627    1.783583
I      -1.964402    3.683279    0.491556
N       0.188108    0.255034    2.708193
C       1.165410    0.320754    3.654206
C       1.684800   -0.814147    4.221385
C       1.263991   -2.028501    3.836844
C       0.329037   -2.112859    2.893686
C      -0.200819   -0.993652    2.317945
H       1.493946    1.169233    3.926737
H       2.350966   -0.739599    4.894866
H       1.625091   -2.813221    4.231373
H       0.025711   -2.968203    2.614733
N      -1.627165    0.255034    0.858974
C      -2.604467    0.320754   -0.087039
C      -3.123857   -0.814147   -0.654218
C      -2.703047   -2.028501   -0.269678
C      -1.768094   -2.112859    0.673481
C      -1.238238   -0.993652    1.249222
H      -2.933003    1.169233   -0.359570
H      -3.790023   -0.739599   -1.327699
H      -3.064148   -2.813221   -0.664206
H      -1.464768   -2.968203    0.952434
I       0.525345    3.683280    3.075611
