23
2009757
Hg      5.356892    1.079074    1.838757
S       5.307096   -1.251650    1.600917
S       2.992204   -0.509330    3.314544
O       3.602676   -2.852788    2.333175
C       3.843300   -1.557790    2.455218
C       2.539920   -3.440684    3.086970
C       2.595620   -4.890106    2.850063
C       5.492020    3.129126    1.938330
C       6.394360    3.782043    1.076850
C       6.472340    5.128516    1.105566
C       5.703680    5.832908    1.995762
C       4.857040    5.209792    2.828526
C       4.767920    3.857901    2.806989
H       2.649092   -3.248331    4.033162
H       1.681026   -3.085779    2.789759
H       1.862608   -5.326287    3.316698
H       2.522096   -5.066204    1.899563
H       3.437804   -5.236884    3.180297
H       6.952474    3.270004    0.475968
H       7.060532    5.591789    0.493915
H       5.783888    6.800092    2.025914
H       4.314522    5.721830    3.440895
H       4.173044    3.408174    3.423665
