30
2009939
Pt     11.585293    1.857322    0.989080
Cl     10.033379    2.045153   -0.712931
N      13.065106    1.791300    2.391720
N      12.915368    3.024738   -0.020708
C      14.342522    2.154678    1.733516
C      14.066798    3.347172    0.857883
N      10.358319    0.655104    2.063357
C       9.551747   -0.261018    1.612229
C      10.229274    0.670458    3.434492
C       9.364495   -0.312198    3.801311
N       8.908341   -0.864942    2.623940
C       7.941327   -1.965312    2.484904
H      13.133217    0.916122    2.751143
H      12.875393    2.410578    3.091338
H      12.480703    3.833382   -0.281031
H      13.231862    2.564118   -0.783928
H      14.993353    2.369634    2.381366
H      14.666411    1.427922    1.198079
H      14.819050    3.541656    0.340195
H      13.841485    4.094400    1.405154
H       9.425070   -0.470856    0.695181
H      10.661351    1.264146    4.023177
H       9.129982   -0.568098    4.688776
H       7.879122   -2.461758    3.283623
H       8.279569   -2.528292    1.789722
H       7.099282   -1.632642    2.233455
N      12.598154   -0.951948    5.018618
O      13.302841   -0.609042    4.070509
O      12.324635   -0.225192    5.963769
O      12.075923   -2.098380    4.972765
