23
2010934
Cr      2.190633    3.195542    4.784488
C       1.619035    2.017553    3.442218
O       1.259100    1.315023    2.607934
C       1.423622    4.640596    3.804876
O       0.957185    5.487164    3.204540
C       2.938572    1.777388    5.788846
O       3.372373    0.905848    6.393069
C       3.861240    3.470626    3.900787
O       4.857104    3.625729    3.367137
C       0.563405    2.984813    5.720450
O      -0.419700    2.855696    6.299490
N       3.803489    4.499704    7.009882
H       4.378310    3.864371    6.936045
C       2.747860    4.553299    6.259384
C       1.993071    5.784478    6.691372
H       1.136212    5.529086    7.116364
H       1.797659    6.358398    5.908540
C       2.871420    6.529945    7.684522
H       2.359721    6.764426    8.498287
H       3.229340    7.360273    7.282692
C       3.996887    5.561569    8.014692
H       4.883293    5.992973    7.915361
H       3.908246    5.206294    8.935094
