26
2010524
Pt      0.711862    0.681576    2.269878
Cl      1.142279   -1.259410    3.446598
Cl      2.590905    0.303334    0.954344
S      -1.096062    1.061743    3.476735
O       1.425214    3.362997    1.442932
O      -1.753266    2.364692    3.180843
N       0.335796    2.426142    1.237451
C       1.012021    4.704794    1.062107
C       0.381467    4.730991   -0.283107
C      -0.011368    3.624048   -0.873978
C       0.052137    2.308974   -0.211874
C      -2.304207   -0.219026    3.269428
C      -0.737190    0.982394    5.220125
H      -0.435331    2.816209    1.631974
H       0.384530    5.030389    1.699554
H       1.773349    5.275118    1.052975
H       0.260495    5.559130   -0.726032
H      -0.354919    3.671124   -1.759829
H      -0.775424    1.861043   -0.326030
H       0.746640    1.795829   -0.615529
H      -3.025704   -0.079165    3.873998
H      -1.907575   -1.064398    3.442031
H      -2.636014   -0.203300    2.377184
H      -0.301937    1.780392    5.492273
H      -0.166437    0.237501    5.391816
H      -1.544487    0.876877    5.706886
