26
2010525
Pt      0.703767    0.986986    7.415652
Cl      2.369036    2.558646    7.622245
Cl     -0.881156   -0.669824    7.348349
S      -0.646401    2.512882    6.509353
O       3.175797   -0.515890    7.541807
O      -1.268004    3.464226    7.459333
N       1.939204   -0.427134    8.281021
C       3.941229   -1.679415    7.931778
C       4.065219   -1.809774    9.387804
C       3.317972   -1.123308   10.243092
C       2.248352   -0.201086    9.713628
C      -1.950776    1.780651    5.518644
C       0.226488    3.453132    5.274276
H       1.502759   -1.267535    8.212801
H       4.812465   -1.610075    7.553008
H       3.511397   -2.454636    7.587626
H       4.711620   -2.413032    9.728901
H       3.456841   -1.213450   11.175763
H       2.540968    0.696174    9.818503
H       1.454816   -0.336992   10.216619
H      -1.573846    1.088638    4.984089
H      -2.608750    1.421470    6.090872
H      -2.324399    2.446315    4.961689
H      -0.400074    3.905229    4.720375
H       0.793536    4.082739    5.694793
H       0.748900    2.860968    4.739721
