18
2010172
Cr      1.847792    0.199335    1.900936
C       2.017969   -0.746070    3.489726
O       2.134741   -1.335274    4.466602
C       1.495890   -1.365882    1.031548
O       1.260641   -2.352225    0.461102
C       0.050781    0.338218    2.246711
O      -1.075231    0.403260    2.483967
N       2.692269    2.105830    2.572680
C       1.875118    2.331564    1.494713
C       2.029062    1.677318    0.263045
C       3.036976    0.765200    0.124817
C       3.909950    0.518040    1.197627
C       3.693182    1.194477    2.376686
H       4.783250   -0.122432    1.186280
H       1.369137    1.943608   -0.546720
H       4.216993    0.994760    3.300953
H       3.139718    0.137736   -0.753030
H       0.984161    2.892456    1.733000
