29
2010021
Br      9.549563   10.465913   11.214352
Mn      7.572672    9.851984    9.762745
P       9.054720    8.585153    8.502038
P       7.695944    7.730670   10.686934
O       7.936700   12.427530    8.344914
O       5.308011    9.042073    8.116032
O       5.790557   11.033255   11.783093
C       7.792040   11.436419    8.880622
C       6.190440    9.393721    8.749478
C       6.492161   10.588655   11.002420
C       9.195248    7.255832    9.760271
C       8.452312    7.802343    6.979045
C      10.723484    9.058871    8.044274
C       7.995598    7.408139   12.448706
C       6.444630    6.498780   10.248965
H       9.986748    7.323026   10.279895
H       9.135317    6.384550    9.384162
H       9.137383    7.255832    6.610360
H       7.692844    7.265911    7.175760
H       8.211556    8.474283    6.350548
H      11.179165    9.390362    8.807627
H      11.184331    8.300699    7.702807
H      10.688352    9.733051    7.376186
H       7.168966    7.426057   12.918842
H       8.398581    6.553655   12.550157
H       8.573207    8.075599   12.800071
H       6.440497    6.369991    9.307456
H       6.645088    5.675653   10.678273
H       5.588032    6.802273   10.529809
