29
2011134
Hg     -0.578420    3.651976    8.492287
I      -1.785702    2.324316    6.367852
I       1.871697    4.782293    7.744669
S      -1.941533    5.514424    9.504419
N      -4.620663    5.794344    9.696829
N      -4.067753    4.510911    8.083170
H      -3.604879    4.065838    7.510901
C      -3.566787    5.247100    9.091831
C      -5.803820    5.409454    9.085880
H      -6.664928    5.679577    9.313994
C      -5.464456    4.586489    8.117883
H      -6.049686    4.134418    7.554541
C      -4.534090    6.720879   10.826489
H      -3.841510    6.432562   11.425536
H      -5.373266    6.737674   11.291643
H      -4.329779    7.602627   10.503162
S       0.056561    1.996809   10.361335
N       2.089283    0.869152    8.914298
N       2.773783    2.270151   10.366294
H       2.786480    2.855184   10.997078
C       1.682969    1.697715    9.880312
C       3.447894    0.920937    8.839913
H       3.973101    0.415681    8.262686
C       3.898071    1.785890    9.703771
H       4.783419    2.029420    9.847582
C       1.245490    0.012596    8.103006
H       0.331284    0.293916    8.185325
H       1.328599   -0.895744    8.402530
H       1.516750    0.072779    7.183607
