30
2011738
Cu      2.139731    3.985262    3.182811
S      -0.602181    2.490733    3.928859
S       4.052664    1.534366    3.689082
O       0.164288    1.299165    3.639144
O      -0.489540    2.941573    5.284546
O      -1.956581    2.406256    3.442790
O       4.250375    0.143166    3.404086
O       5.235599    2.328004    3.417302
O       3.478427    1.798023    4.989072
O       2.419689    4.724479    0.971382
H       2.244910    4.294981    0.405923
H       2.033541    5.282026    0.944006
N       0.119756    3.694751    2.988723
H      -0.289992    4.473716    3.176581
H      -0.049258    3.508012    2.124958
N       2.898071    2.149269    2.615841
H       2.219072    1.561488    2.551649
H       3.271396    2.227521    1.801164
N       5.043158    4.914774    2.046605
H       5.310048    4.206058    2.438368
H       5.709322    5.313149    1.694491
H       4.481820    4.709362    1.438665
C       2.367032    5.627047    4.365084
H       2.056848    6.403345    3.956330
H       1.829961    5.178876    4.978688
C       3.601896    5.146863    4.063946
H       3.899648    4.369676    4.479309
C       4.501357    5.840463    3.077460
H       4.003448    6.548290    2.638497
H       5.240466    6.250398    3.555127
