27
2011781
Au      2.008659    2.627867    3.249500
Cl     -0.240460    2.370529    3.468055
Cl      4.251075    2.897384    2.976011
Cl      1.980230    4.330952    4.733281
N       2.025211    1.146674    1.823058
C       1.585857    1.461754    0.578043
C       1.089240    2.746450    0.255673
H       1.066045    3.407519    0.909508
C       0.648969    3.025339   -0.991364
H       0.307434    3.872025   -1.166191
C       0.687097    2.086699   -2.029213
H       0.392091    2.315402   -2.881119
C       1.153355    0.858221   -1.782636
H       1.175128    0.233073   -2.470830
C       1.623487    0.483639   -0.471934
C       2.078628   -0.787557   -0.162701
H       2.097753   -1.440264   -0.823610
C       2.504251   -1.097230    1.112631
C       2.949384   -2.408576    1.481487
H       2.968126   -3.078240    0.836747
C       3.342166   -2.696947    2.737619
H       3.621869   -3.556398    2.957922
C       3.325146   -1.673545    3.721909
H       3.613708   -1.874418    4.582909
C       2.904585   -0.418300    3.451077
H       2.899755    0.228710    4.119060
C       2.464702   -0.092271    2.122185
