28
2011496
Pt      0.071038    2.609869    6.346687
Cl     -1.454291    2.509310    4.637957
Cl      0.072464    4.917637    6.228113
S       0.144468    0.395448    6.489698
O       2.951280    1.897470    6.541326
O       0.877324   -0.147656    7.630687
N       1.378904    2.792743    7.892271
C       0.968046    3.284082    9.072842
C       1.769610    3.351970   10.157039
C       3.068696    2.876754   10.045178
C       3.530821    2.359108    8.852560
C       2.665417    2.325164    7.790735
C       4.235987    1.221984    6.395045
C       0.819826   -0.280038    4.997635
C      -1.499041   -0.288524    6.508628
H       0.082302    3.585165    9.156480
H       1.475727    3.712455   10.959173
H       3.634850    2.906200   10.780883
H       4.401942    2.044108    8.769782
H       4.345252    0.965283    5.474682
H       4.251645    0.453831    6.953665
H       4.933298    1.830770    6.642174
H       1.721227    0.029786    4.889904
H       0.289584    0.001782    4.251776
H       0.814607   -1.238532    5.053910
H      -1.966019    0.018330    7.285464
H      -1.445368   -1.246933    6.520330
H      -1.970459   -0.006619    5.718024
