29
2011181
Fe      0.120435    2.109674    0.404743
C      -0.599676    0.489495    0.614713
O      -1.070850   -0.543021    0.768732
C       1.669812    1.604709    1.150372
O       2.682836    1.287033    1.594029
C       0.556842    1.970560   -1.334377
O       0.844544    1.834336   -2.411147
C       0.515436    4.129799    0.617439
Cl      2.125138    4.750433    0.992809
C      -0.220595    3.631204    1.752136
H       0.142780    3.607652    2.582885
C      -1.427086    3.007358    1.403209
H      -1.977503    2.622774    1.901385
C      -1.734063    3.034389    0.021126
H      -2.491511    2.507693   -0.327120
C      -1.565583    4.346044   -0.715575
H      -2.198812    4.943126   -0.354380
O      -1.774755    4.223469   -2.094931
C      -0.141352    4.921180   -0.472280
H      -0.135641    5.853068   -0.136300
C      -3.156152    4.204467   -2.430229
H      -3.249673    4.124178   -3.346165
H      -3.548083    4.991300   -2.150133
H      -3.562361    3.489895   -2.017240
O       0.684630    4.857217   -1.614474
C       0.671066    6.033718   -2.405013
H      -0.199892    6.265218   -2.753260
H       1.156518    6.779068   -1.894570
H       1.227908    5.778132   -3.237125
