29
2012765
Zn     -4.451001    0.508884    2.533060
Cl     -2.817779   -0.483784    3.805073
S      -3.189158    3.290337   -0.842891
S      -8.462740   -0.863321    4.146727
N      -5.448459    1.608227    4.215825
H      -4.899382    1.667941    4.926003
H      -5.682569    2.438149    3.959448
N      -3.667720   -0.312739    0.622434
H      -2.955989   -0.842067    0.774615
H      -4.301415   -0.795511    0.202908
N      -6.588922    0.846116    4.532526
H      -7.064663    1.027282    5.226252
N      -6.147968   -0.510098    2.750226
H      -6.358573   -1.149746    2.216907
N      -3.300102    0.795511   -0.154923
H      -2.871371    0.695313   -0.893892
N      -4.197993    2.144640    1.429953
H      -4.457488    2.913836    1.712379
C      -3.636694    2.017115    0.289281
C      -6.911410   -0.171045    3.719523
C      -8.555820   -2.298479    3.113541
H      -9.385076   -2.754936    3.275319
H      -7.823404   -2.885497    3.315078
H      -8.509750   -2.033309    2.192229
C      -4.381332    4.551414   -0.486705
H      -4.225259    5.309477   -1.055670
H      -4.300475    4.818608    0.431865
H      -5.265120    4.210336   -0.644370
Cl     -6.077453   -2.436125    0.037565
