29
2012495
Fe      2.341525    1.245198   11.547759
O      -0.210521    2.443043   14.177902
O       2.354779    4.678262   13.216019
O       0.765637    4.672123   11.631158
C       0.685881    0.854101   12.692222
C       0.678480    0.056999   11.477284
C       1.833168   -0.754134   11.489529
C       2.571995   -0.480541   12.660930
C       1.888793    0.522632   13.411933
C       2.613346    3.252422   11.323546
C       2.174408    2.671037   10.096364
C       3.152212    1.703817    9.701815
C       4.167832    1.686279   10.694990
C       3.853512    2.642977   11.694966
C      -0.295274    1.878320   13.077247
C      -1.392283    2.214173   12.112644
C       1.925013    4.272257   12.156180
H       0.380460    5.163187   12.162983
H      -0.012206    0.069275   10.782062
H       2.091663   -1.388133   10.788865
H       3.427185   -0.891807   12.905823
H       2.176491    0.903207   14.267696
H       1.359912    2.903416    9.603858
H       3.118940    1.141724    8.900473
H       4.952515    1.098756   10.696350
H       4.383302    2.843787   12.493587
H      -1.819327    3.030566   12.384746
H      -2.038486    1.503884   12.101760
H      -1.023087    2.324662   11.233753
