29
2012307
Pd      5.719660    6.885824    7.773586
S       3.867834    6.914385    6.530384
S       6.368074    4.962572    6.795572
O       7.412736    7.096932    8.948910
O       9.076655    8.473705    9.120525
O       8.600018    7.629813    7.190575
O       5.053394    8.488468    8.896179
O       5.630348   10.467677    9.514568
O       6.278455    9.730956    7.596123
O       4.156159    6.781945    5.096679
O       5.295198    4.040181    6.431250
N       8.406912    7.763104    8.389004
N       5.692415    9.610299    8.665122
C       2.973183    8.402021    6.829128
H       2.732742    8.450284    7.757192
H       2.177598    8.409118    6.291273
H       3.521317    9.155775    6.600948
C       2.712120    5.692195    7.057309
H       2.446101    5.872472    7.962363
H       3.119774    4.824881    7.010331
H       1.940630    5.714907    6.486857
C       7.341822    5.256409    5.348829
H       7.686212    4.423162    5.019980
H       8.071490    5.839823    5.567422
H       6.795176    5.666644    4.673874
C       7.500613    4.152038    7.898127
H       7.078530    4.020024    8.750450
H       8.284057    4.695706    8.009341
H       7.751238    3.300338    7.530929
