18
2012617
Au      0.000000    0.000000    0.000000
S       0.861167    2.105017    0.117943
N       2.178674    1.096557    2.207609
H       2.616471    1.172556    2.943710
H       2.046745    0.319506    1.864188
N       1.921968    3.325344    2.140313
H       2.361268    3.388935    2.877107
H       1.622207    4.034151    1.756652
C       1.713521    2.163645    1.608877
S      -0.861167   -2.105017   -0.117943
N      -2.178674   -1.096557   -2.207609
H      -2.616471   -1.172556   -2.943710
H      -2.046745   -0.319506   -1.864188
N      -1.921968   -3.325344   -2.140313
H      -2.361268   -3.388935   -2.877107
H      -1.622207   -4.034151   -1.756652
C      -1.713521   -2.163645   -1.608877
Cl     -0.440849    5.777165    1.734451
