19
2013426
Cr      4.641346    5.110022    6.861155
Cl      1.681487    6.987898    7.597654
O       6.669021    4.095207    8.812804
O       6.849054    5.509426    4.885780
O       5.208127    7.834169    7.975103
C       2.486295    5.560011    6.996979
C       2.770220    4.528944    7.890365
H       2.531126    4.605359    8.806751
C       3.411362    3.380564    7.420671
H       3.626974    2.683141    8.028368
C       3.742252    3.237420    6.062434
H       4.141454    2.438828    5.736796
C       3.464732    4.313690    5.196891
H       3.720904    4.243733    4.284136
C       2.825724    5.481443    5.627847
H       2.628613    6.190705    5.027414
C       5.877733    4.490198    8.059842
C       5.993723    5.372740    5.652058
C       4.973303    6.784806    7.532042
