23
2013764
Pt      2.284652    5.556199    2.941755
Cl     -0.005348    5.339258    3.139268
Cl      4.552738    5.827656    2.620705
S       2.436213    6.803268    4.838060
N       2.210410    4.341178    1.302307
C       2.821040    3.143836    1.317326
H       3.340462    2.911463    2.078971
C       2.730340    2.236812    0.283204
H       3.172950    1.398377    0.338986
C       1.985519    2.563790   -0.834592
H       1.884585    1.950041   -1.553328
C       1.382236    3.829721   -0.877502
H       0.890541    4.097570   -1.643439
C       1.505277    4.681755    0.195239
H       1.084136    5.532607    0.160911
C       1.613834    5.867271    6.127495
H       1.591328    6.396467    6.953505
H       2.102708    5.032975    6.288406
H       0.697756    5.660323    5.848582
C       1.265770    8.181541    4.702895
H       1.208805    8.646879    5.563233
H       0.381657    7.836234    4.458310
H       1.574530    8.805933    4.014196
