29
2013697
Cr      6.797051    2.359302    4.711269
Br      9.559705    1.568136    0.276273
O       4.555253    0.773265    3.499480
O       6.628514    0.700077    7.207885
O       4.713277    4.171117    5.905506
C       8.249759    1.577070    3.199683
C       8.900101    1.694777    4.443036
H       9.341043    0.939296    4.814033
C       8.906594    2.926865    5.151623
H       9.354607    2.995710    5.986046
C       8.244621    4.042319    4.608789
H       8.243334    4.866365    5.081557
C       7.584257    3.944659    3.369540
H       7.143688    4.704278    3.006470
C       7.574637    2.721296    2.663076
H       7.120854    2.657350    1.831625
C       8.252807    0.263517    2.480904
C       8.793350    0.108110    1.203579
C       8.827533   -1.130524    0.554300
H       9.197980   -1.211267   -0.317067
C       8.306451   -2.243346    1.210232
H       8.319031   -3.091155    0.782758
C       7.770923   -2.123399    2.479913
H       7.422815   -2.889407    2.921542
C       7.740737   -0.886554    3.106969
H       7.366391   -0.815702    3.977486
C       5.411464    1.381225    3.973382
C       6.692111    1.335335    6.242247
C       5.520936    3.481600    5.450289
