23
2013313
Pd      3.747900    0.000000   10.376100
S       2.912943    2.066534   11.045151
S       4.606019    0.310214   12.526858
O       3.787628    2.573365   13.521926
C       3.762892    1.786320   12.482656
C       3.086021    3.853933   13.418788
H       2.120562    3.705013   13.262731
H       3.449567    4.385584   12.667143
C       3.299651    4.570475   14.714347
H       2.841658    5.436657   14.688407
H       4.258364    4.712201   14.854425
H       2.936854    4.031630   15.447938
S       4.582857   -2.066534    9.707049
S       2.889781   -0.310214    8.225342
O       3.708172   -2.573365    7.230274
C       3.732908   -1.786320    8.269544
C       4.409779   -3.853933    7.333412
H       5.375238   -3.705013    7.489469
H       4.046233   -4.385584    8.085057
C       4.196149   -4.570475    6.037853
H       4.654142   -5.436657    6.063793
H       3.237436   -4.712201    5.897775
H       4.558946   -4.031630    5.304262
