19
2014447
Rh      3.634810    1.955019    3.089093
O       3.051935    1.313546    1.251849
O       3.560118    3.708963    2.087164
C       3.685284    0.305984    3.870067
C       4.120433    2.672989    4.696400
O       3.737751   -0.721248    4.360703
O       4.391552    3.140707    5.706862
C       2.858434    2.224941    0.395203
C       3.152457    3.595312    0.833069
C       3.090440    4.736195    0.062873
H       3.336450    5.514269    0.508599
C       2.729863    4.921971   -1.237254
H       2.795360    5.798397   -1.542638
C       2.282813    4.021504   -2.155651
H       2.065224    4.358086   -2.994334
C       2.122714    2.655504   -1.973768
H       1.782210    2.196528   -2.706914
C       2.391252    1.883987   -0.873488
H       2.233666    0.974778   -0.993620
