18
2014206
Pt      1.540852    4.127685    0.437166
Cl      2.974629    4.892549   -1.198856
Cl      2.688257    5.259260    2.086042
C       0.473790    2.764152    1.705960
H       0.778976    2.517682    2.603604
C      -0.326585    3.874420    1.452136
H      -0.633108    4.480230    2.158050
C      -1.175468    3.528901    0.229858
H      -1.976983    4.070214    0.069720
C      -0.084994    3.550784   -0.843176
H      -0.221553    3.928551   -1.736462
C       0.716645    2.445123   -0.604603
H       1.196283    1.972913   -1.315964
C       0.145141    1.737961    0.620943
H       0.412474    0.807363    0.776724
C      -1.366985    2.028197    0.401979
H      -1.720922    1.600905   -0.393264
H      -1.909598    1.804761    1.174345
