23
2014743
Hg      2.305206    4.045600    5.268367
C       3.915791    5.023017    4.368530
C       4.670337    5.985061    5.035505
C       5.782554    6.574909    4.460199
C       6.179681    6.217278    3.164181
C       5.435648    5.272226    2.481401
C       4.318439    4.675904    3.073565
H       4.412993    6.245597    5.912161
H       6.278555    7.223823    4.944889
H       6.943955    6.614556    2.763785
H       5.686752    5.025444    1.599476
H       3.825250    4.024563    2.588875
C       0.694621    3.068183    6.168204
C      -0.059925    2.106139    5.501228
C      -1.172142    1.516291    6.076534
C      -1.569269    1.873922    7.372552
C      -0.825236    2.818974    8.055332
C       0.291973    3.415296    7.463168
H       0.197419    1.845603    4.624572
H      -1.668143    0.867377    5.591844
H      -2.333543    1.476644    7.772948
H      -1.076340    3.065756    8.937257
H       0.785162    4.066637    7.947858
