18
2015264
Pt      0.012791    0.283805    3.237500
Cl     -1.585307    0.158018    1.547913
N       1.404480    0.466688    1.757315
H       1.097668    0.008021    1.046360
H       1.425380    1.334436    1.519035
C       2.799764    0.044481    1.977465
H       3.340656    0.324494    1.222480
H       2.835712   -0.923896    2.026675
C       3.373260    0.623466    3.237500
H       3.220272    1.581635    3.237500
H       4.332152    0.479084    3.237500
N       1.404480    0.466688    4.717685
H       1.097668    0.008021    5.428640
H       1.425380    1.334436    4.955965
C       2.799764    0.044481    4.497535
H       3.340656    0.324494    5.252520
H       2.835712   -0.923896    4.448325
Cl     -1.585307    0.158018    4.927086
