18
2015265
Pd      0.059373    0.353046    3.220000
Cl     -1.534806    0.270698    1.523962
N       1.443231    0.528208    1.736997
H       1.144689    0.043002    1.040704
H       1.439876    1.388965    1.473472
C       2.865496    0.146207    1.955184
H       3.395491    0.442204    1.199128
H       2.932584   -0.820621    2.006704
C       3.427358    0.748235    3.220000
H       3.244543    1.700729    3.220000
H       4.390071    0.633563    3.220000
N       1.443231    0.528208    4.703003
H       1.144689    0.043002    5.399296
H       1.439876    1.388965    4.966528
C       2.865496    0.146207    4.484816
H       3.395491    0.442204    5.240872
H       2.932584   -0.820621    4.433296
Cl     -1.534806    0.270698    4.916038
