20
2015346
Pt      6.409307    1.136946    7.977814
Cl      5.981372   -0.629193    6.502109
Cl      4.472931    0.541221    9.134822
C       9.280175    1.952601    5.116470
H       9.327701    2.204087    4.190691
H       9.923101    2.459398    5.617898
H       9.471900    1.016462    5.203939
C       7.869926    2.240423    5.654271
H       7.167343    1.768051    5.201341
C       7.565827    3.721608    5.939193
H       7.361698    4.170075    5.115604
H       6.814810    3.785675    6.533286
H       8.332387    4.132783    6.346225
N       6.707870    2.708015    9.212764
H       6.179653    3.434742    9.152143
H       7.530258    3.160307    9.311491
H       6.765382    2.395331   10.081387
N       8.164884    1.732671    7.099666
H       8.786676    2.122808    7.621012
H       8.587339    0.908409    6.910872
