23
2016415
Pt      4.775042    0.000000   13.051445
I       3.294408    0.665858   15.198538
I       3.008909    1.302472   11.466086
S       5.712200    2.182784   13.320305
C       6.449823    2.776658   11.797201
H       6.832794    3.644222   11.944682
H       5.774462    2.836645   11.117221
H       7.135556    2.167787   11.515290
C       7.212493    2.105551   14.320045
H       7.792106    1.423196   13.975487
H       6.980320    1.900095   15.229731
H       7.661650    2.953620   14.288722
I       6.255675   -0.665858   10.904352
I       6.541174   -1.302472   14.636804
S       3.837884   -2.182784   12.782585
C       3.100260   -2.776658   14.305689
H       2.717290   -3.644222   14.158208
H       3.775621   -2.836645   14.985669
H       2.414528   -2.167787   14.587600
C       2.337590   -2.105551   11.782845
H       1.757977   -1.423196   12.127403
H       2.569763   -1.900095   10.873159
H       1.888433   -2.953620   11.814168
