23
2016463
Mo      8.098934    0.079324    7.012935
N       7.253382    0.872981    5.601950
O       6.748208    1.369750    4.663758
N       8.345473    1.755806    7.708570
O       8.446535    2.848395    8.125250
N      10.090676   -0.190302    6.137965
H      10.068184   -0.853443    5.529818
H      10.343776    0.565681    5.720338
N       6.358940   -0.530846    8.183827
H       6.570402   -0.526303    9.058703
H       5.691119    0.058310    8.055866
O       9.122579   -0.962717    8.518232
O       7.717460   -1.834108    6.251329
O      11.052433   -1.830322    9.199744
O       6.352545   -3.586961    6.238344
C      11.062116   -0.522516    7.203740
H      11.509263    0.287763    7.492837
H      11.734847   -1.124546    6.847344
C      10.388624   -1.175283    8.398139
C       5.905475   -1.867428    7.802787
H       4.976579   -1.813662    7.526960
H       5.948003   -2.443710    8.581929
C       6.703420   -2.500506    6.690568
