21
2016971
Zn     -0.377374    0.640711    2.705021
O      -1.434417   -0.665625    1.606566
H      -1.602613   -1.345240    1.893515
H      -1.262585   -0.747953    0.876427
O       1.089608    2.270980    2.820579
O       0.831864    1.135921    0.978460
C       1.363481    2.107184    1.597369
C       2.274660    3.063919    0.893955
H       1.763956    3.849001    0.604843
H       2.668282    2.624832    0.111447
H       2.987902    3.345343    1.505074
O       0.679669   -0.665625    3.803476
H       0.847865   -1.345240    3.516527
H       0.507837   -0.747953    4.533615
O      -1.844356    2.270980    2.589462
O      -1.586612    1.135921    4.431582
C      -2.118229    2.107184    3.812673
C      -3.029408    3.063919    4.516086
H      -2.518704    3.849001    4.805199
H      -3.423030    2.624832    5.298595
H      -3.742649    3.345343    3.904968
