19
2017023
Cr      2.003880    1.149865    2.874593
Br      1.642419    3.218181    4.146932
N       2.726328    0.178988    4.083356
N       3.503991    1.516631    2.150365
C      -0.060349    0.377040    2.876113
C       0.804735   -0.563441    2.242690
H       0.979980   -1.427667    2.538365
C       1.342350    0.034950    1.109074
H       1.944507   -0.357976    0.517724
C       0.811587    1.350352    1.008568
H       1.010593    1.972044    0.347097
C      -0.057127    1.537813    2.076738
H      -0.556422    2.305661    2.239184
C      -0.778967    0.194874    4.137115
O       3.192190   -0.607923    4.793911
O       4.499860    1.632073    1.571870
O      -1.551596    1.139592    4.495898
O      -0.591736   -0.857871    4.799754
H      -1.744505    1.080282    5.223984
