30
2017723
Ti      0.646391    3.674287    5.280024
Cl      1.272868    5.031902    7.090434
N      -0.951359    2.762021    5.731728
N       1.904840    2.260700    5.428870
C      -0.669411    4.846064    3.629469
H      -1.648038    5.044181    3.692490
C      -0.090978    3.695858    3.039143
H      -0.587782    2.960138    2.578115
C       1.306571    3.872847    3.040715
H       1.968928    3.286461    2.574745
C       1.595378    5.098937    3.665192
H       2.495980    5.530900    3.720574
C       0.363639    5.697159    4.021298
H       0.250652    6.612744    4.406948
C      -0.862828    2.214019    7.093804
H      -1.001511    1.244453    7.064821
H      -1.551724    2.626071    7.656833
H       0.022546    2.407048    7.466985
C      -2.191650    2.343664    5.092198
H      -2.942013    2.493330    5.704430
H      -2.138578    1.391574    4.867526
H      -2.329559    2.865006    4.274391
C       1.640998    0.830741    5.442575
H       2.053383    0.430304    6.235780
H       2.018959    0.421455    4.636113
H       0.672934    0.676982    5.464031
C       3.322361    2.537688    5.211499
H       3.848204    2.139352    5.936966
H       3.467123    3.506591    5.196671
H       3.603246    2.152626    4.355273
