27
2018101
Pt      0.410274    5.341758   11.654930
Cl     -1.472263    4.151174   12.278044
Cl      0.676672    6.254802   13.753176
N       4.195700    6.847826   10.823102
N       3.351535    7.686652   10.212354
N       2.106224    7.406248   10.385231
N       2.107062    6.304916   11.129738
N       3.758543    4.836076   12.016836
C       3.810466    8.736676    9.253329
C       3.381684    5.892066   11.262234
N      -0.401146    4.307484    7.723937
N       0.642336    3.546217    8.067167
N       1.001608    3.638094    9.303804
N       0.175030    4.531808    9.823697
N      -1.666555    5.802575    9.084238
C       1.272947    2.595230    7.122022
C      -0.645686    4.956590    8.858363
H       4.576076    4.749688   12.256087
H       3.170642    4.256177   12.262649
H       4.769531    8.792399    9.274529
H       3.436370    9.584929    9.503054
H       3.523466    8.508415    8.366610
H      -2.252781    5.948147    8.474248
H      -1.753400    6.174976    9.859282
H       0.865269    2.690328    6.255998
H       1.141381    1.700442    7.439889
H       2.208646    2.783637    7.058676
