19
2018422
Mn     -0.892862    3.238501    3.659971
O      -0.383699    0.605381    6.495459
O       1.928004    2.402863    3.893840
O      -1.428069    1.377104    1.436274
O      -0.355945    5.425989    1.762875
C      -1.647724    2.277276    5.394566
C      -2.744092    2.658387    4.551964
H      -3.416941    2.036635    4.150780
C      -2.738765    4.064683    4.419586
H      -3.397866    4.611335    3.902813
C      -1.639285    4.569892    5.186738
H      -1.394302    5.534060    5.291231
C      -0.971663    3.480367    5.786005
H      -0.184771    3.539783    6.400807
C      -1.262547    0.902004    5.711615
H      -1.728555    0.196909    5.277723
C       0.840574    2.743332    3.777576
C      -1.198002    2.091014    2.298752
C      -0.560457    4.570465    2.502818
