19
2018423
Re     -0.883759    2.522140    1.172243
O      -0.615046    5.173214   -1.882163
O       2.053802    3.369434    0.942543
O      -1.351933    4.449631    3.514800
O      -0.267444    0.266886    3.163905
C      -1.774165    3.481020   -0.702765
C      -2.855528    3.069187    0.150105
H      -3.559009    3.670831    0.528292
C      -2.832719    1.666886    0.264146
H      -3.506671    1.106656    0.745652
C      -1.737457    1.173377   -0.522444
H      -1.512892    0.211668   -0.679372
C      -1.088845    2.288086   -1.104345
H      -0.331464    2.244372   -1.754476
C      -1.442433    4.863764   -1.053660
H      -1.905564    5.560889   -0.603345
C       0.965386    3.031225    1.075104
C      -1.146594    3.727199    2.652183
C      -0.489331    1.130814    2.427999
