21
2018917
Pt      3.273260    6.167757    2.164677
Br      1.770142    4.935966    3.642395
Br      5.116171    6.082105    3.739794
N       1.791865    6.243338    0.756047
N       4.463149    7.318524    0.978480
C      -0.270585    7.189683    0.077515
C       0.768113    5.518381   -1.249219
C       2.973611    4.577480   -0.568440
C      -0.298902    6.393955   -1.024540
C       1.821522    5.463941   -0.344883
C       0.777853    7.091691    0.958259
H      -0.979568    7.815967    0.239059
H       0.773427    4.956553   -2.027352
H       2.731343    3.888825   -1.192027
H       3.705899    5.086701   -0.921984
H       3.234855    4.176667    0.264414
H      -1.037844    6.432407   -1.636915
H       0.783477    7.647875    1.740987
H       4.895513    6.809249    0.420432
H       3.972283    7.882965    0.535210
H       5.031673    7.753716    1.472967
