27
2019724
Pt      1.478943    3.481175    6.153100
Cl      2.766923    3.481175    4.232415
Cl      0.164806    3.481175    8.086601
Cl      0.119900    5.084604    5.190256
C       4.315191    6.962350    7.881924
H       4.878403    7.678080    8.151653
C       2.930217    7.128054    7.853853
H       2.534834    7.945434    8.134566
C       2.151548    6.090664    7.414477
H       1.208828    6.200669    7.391287
N       2.687544    4.904279    7.010495
N       4.568448    3.481175    6.822539
H       5.346361    3.481175    6.412454
C       4.014307    4.714903    7.114236
C       4.860260    5.755079    7.516998
H       5.801467    5.628364    7.537746
C       4.315191    0.000000    7.881924
H       4.878403   -0.715730    8.151653
C       2.930217   -0.165704    7.853853
H       2.534834   -0.983084    8.134566
C       2.151548    0.871686    7.414477
H       1.208828    0.761681    7.391287
N       2.687544    2.058071    7.010495
C       4.014307    2.247447    7.114236
C       4.860260    1.207271    7.516998
H       5.801467    1.333986    7.537746
Cl      0.119900    1.877746    5.190256
