24
2019725
Au     -1.807832    3.074142    2.430478
Cl     -3.909746    2.214442    2.686619
Cl     -2.309604    4.443292    4.192460
N       0.034357    3.884155    2.214740
N       0.087345    3.501088   -0.169597
N      -1.391674    1.894268    0.838841
C       0.675634    4.399767    3.302158
H       0.370761    4.161160    4.169265
C       1.733581    5.242263    3.190755
H       2.185890    5.560087    3.963088
C       2.139727    5.630422    1.912125
H       2.838700    6.264771    1.808206
C       1.531078    5.094735    0.811406
H       1.800217    5.374487   -0.055701
C       0.498546    4.121474    0.946918
C      -0.657528    2.392092   -0.197863
C      -0.655559    1.657460   -1.422455
H      -0.214698    2.018488   -2.182317
C      -1.278752    0.443011   -1.518893
H      -1.259692   -0.041141   -2.336119
C      -1.943921   -0.079565   -0.404872
H      -2.354431   -0.935318   -0.443114
C      -1.992454    0.664116    0.738247
H      -2.457754    0.317512    1.490627
