12
2020358
O      -0.198496    5.173429    4.530820
Re      1.467921    2.911000    5.862650
Br      3.030930    2.911000    3.760315
C       0.392238    4.330404    5.009215
O      -0.317356    2.911000    8.312177
C       0.332808    2.911000    7.372717
O       3.256764    5.128018    7.083082
C       2.622052    4.329239    6.651722
O      -0.198496    0.648571    4.530820
C       0.392238    1.491596    5.009215
O       3.256764    0.693982    7.083082
C       2.622052    1.492761    6.651722
