29
2020212
Ru     -0.694714    1.346528    8.880391
Cl     -0.466943   -1.036348    8.577178
Cl     -2.748593    1.401821    7.632763
O      -2.357251    0.633302   11.280535
O      -1.283345    4.262063    9.484733
O       3.480252    4.186626    4.502122
O       1.927160    1.168893   10.383182
N       0.381049    1.642626    7.021949
N       1.664850    3.839582    8.858341
C      -1.718822    0.925264   10.380988
C      -0.995196    3.209304    9.202802
C       1.349140    2.528651    6.735630
C       1.929407    3.599910    7.593491
C       2.836362    4.337608    6.835458
C       2.876879    3.771278    5.460907
C       1.946006    2.613291    5.488332
C       1.604337    1.754945    4.483472
H       2.016346    1.792562    3.650843
C       0.625889    0.836030    4.757724
H       0.361348    0.231903    4.102811
C       0.035593    0.805703    5.995150
H      -0.637854    0.181860    6.145440
C       3.492494    5.411736    7.394932
H       4.093991    5.927428    6.907860
C       3.208396    5.678175    8.711342
H       3.613360    6.398124    9.139175
C       2.332758    4.885611    9.389293
H       2.184117    5.079368   10.286646
C       0.930502    1.265496    9.824805
