27
2020211
Ru      3.132996    6.325505    7.972955
Cl      4.329458    5.897770   10.005968
Cl      2.130445    6.514838    5.817831
O       3.602716    0.270718    6.678502
O       4.897616    8.705965    7.608753
O       1.107894    8.049135    9.279946
N       2.009494    4.461778    8.315343
N       4.470451    4.935535    6.998197
C       0.875459    4.057392    8.947713
H       0.336743    4.695272    9.358929
C       0.497802    2.725796    8.999115
H      -0.273201    2.492301    9.462987
C       1.242928    1.725830    8.373515
H       0.980430    0.834151    8.398589
C       2.385483    2.124293    7.720333
C       2.689802    3.477039    7.751676
C       3.940302    3.717302    7.072166
C       5.632479    5.003384    6.328717
H       6.050451    5.828906    6.240958
C       6.230422    3.894961    5.767056
H       7.036025    3.993096    5.314468
C       5.655768    2.639504    5.864845
H       6.056680    1.889953    5.488733
C       4.456374    2.552875    6.548116
C       3.492546    1.441575    6.935512
C       4.224396    7.831037    7.704035
C       1.811232    7.433589    8.823596
