27
2021756
Cd      1.371002    9.526000    3.255642
O       2.737506   10.596151    4.805067
O       3.245452   11.701357    0.023962
O       2.835926   10.078317    1.533277
C       2.629778   11.193622    0.976041
C       1.508621   12.021050    1.567917
C      -0.151875   12.577749    2.942449
H      -0.771308   12.451625    3.639807
C      -0.071944   13.728490    2.227510
H      -0.600038   14.469994    2.360991
N       0.748424   11.611051    2.560041
S       1.154444   13.603509    1.042522
H       3.305635   10.086129    5.072290
H       2.321042   10.872976    5.404365
O       0.004499    8.455849    1.706217
O      -0.503447    7.350643    6.487322
O      -0.093922    8.973683    4.978006
C       0.112227    7.858378    5.535242
C       1.233384    7.030950    4.943366
C       2.893879    6.474251    3.568834
H       3.513312    6.600375    2.871476
C       2.813949    5.323510    4.283773
H       3.342042    4.582006    4.150292
N       1.993581    7.440949    3.951242
S       1.587560    5.448491    5.468762
H      -0.563630    8.965871    1.438994
H       0.420963    8.179024    1.106918
