29
2021150
Cd      7.299055    1.185168    3.045338
I       5.438485   -0.669657    3.933365
I       9.112983   -0.311593    1.555530
N       7.142667    3.497477    6.686042
H       6.502129    4.032021    6.965824
C       7.010082    2.867516    5.471949
N       8.025608    2.061637    5.026060
C       9.132790    1.902796    5.775745
C       9.264197    2.527292    7.056285
H      10.034651    2.395053    7.595867
C       8.240419    3.314245    7.462960
H       8.291556    3.745981    8.307741
O       5.987935    3.023313    4.781208
N      10.113955    1.143300    5.288704
H      10.026437    0.763088    4.499852
H      10.849611    1.021503    5.756355
N       7.127328    5.070147    1.301116
H       7.780144    5.639669    1.146495
C       7.440755    3.806328    1.748458
N       6.419316    2.902999    1.876512
C       5.137018    3.290103    1.687699
C       4.816443    4.611197    1.273278
H       3.916091    4.878621    1.130773
C       5.840643    5.471861    1.089306
H       5.663641    6.362662    0.810093
O       8.607910    3.491398    2.024416
N       4.165387    2.405058    1.901566
H       4.364208    1.588020    2.160434
H       3.325130    2.637787    1.784248
