19
2100796
Mo      1.968202    2.750250    0.184089
C       1.570853    2.049266   -2.062984
C       2.702507    1.334421   -1.579143
C       3.818184    2.039585   -1.104138
C       3.049167    2.750250    1.817642
O       3.743942    2.750250    2.745730
C       0.804758    1.425730    1.043683
O       0.103769    0.652359    1.552570
H       0.928568    1.496136   -2.278696
H       2.678896    0.462042   -1.594423
H       4.498725    1.573143   -0.863646
C       1.570853    3.451234   -2.062984
C       2.702507    4.166079   -1.579143
C       3.818184    3.460915   -1.104138
H       0.928568    4.004364   -2.278696
H       2.678896    5.038458   -1.594423
H       4.498725    3.927357   -0.863646
C       0.804758    4.074770    1.043683
O       0.103769    4.848141    1.552570
