29
2100012
Cr      0.354273    9.117002    5.959819
N       2.937370    6.241891    7.769949
C       1.167948    8.127626    7.648820
C       1.562017    9.490284    7.682845
C       0.592400   10.490533    7.594380
C      -0.759620   10.157116    7.452836
C      -1.160171    8.808955    7.447392
C      -0.199627    7.783337    7.530413
C       2.157010    7.082680    7.715509
C       1.424612    8.137290    4.326619
C       1.786274    9.491492    4.386503
C       0.807582   10.503821    4.385142
C      -0.530179   10.178861    4.321175
C      -0.932025    8.836739    4.281706
C       0.047962    7.811122    4.295316
C       2.472006    7.059727    4.276262
H       2.657374    9.688401    7.771310
H       0.855545   11.403803    7.621600
H      -1.361094   10.884350    7.335790
H      -1.983308    8.613254    7.308570
H      -0.505549    6.897851    7.458280
H       2.722188    9.664240    4.532130
H       1.205540   11.512526    4.572960
H      -1.205540   10.896431    4.341590
H      -1.672201    8.661575    4.300760
H      -0.259256    6.994494    4.314370
H       2.696262    6.801209    3.307230
H       2.125899    6.185114    4.709060
H       3.292551    7.320662    4.831550
