29
2100013
Cr      1.966927    6.147391    2.490242
F       6.099281    5.016698    1.400290
F       5.303689    7.017666    1.265869
F       4.595372    5.476594   -0.055607
N       1.010098    5.071456   -1.454495
C       0.938552    6.527261    0.680986
C      -0.020274    6.235474    1.699507
C       0.025749    6.972373    2.901825
C       1.008204    7.961162    3.113348
C       1.941697    8.265465    2.085326
C       1.907955    7.555164    0.870703
C       0.974566    5.712918   -0.507625
C       3.905196    5.361679    2.199499
C       2.961963    4.336905    1.916014
C       1.960816    4.032602    2.858835
C       1.915283    4.727258    4.100872
C       2.884341    5.709789    4.394481
C       3.876767    6.045383    3.446832
C       4.956269    5.712918    1.207302
H      -0.641597    5.530649    1.605894
H      -0.468956    6.719699    3.691532
H       1.071461    8.385934    3.987478
H       2.704020    8.910055    2.180652
H       2.618781    7.681891    0.161991
H       2.971287    3.926995    1.077865
H       1.204195    3.426343    2.607437
H       1.203108    4.615393    4.685287
H       2.819825    6.226869    5.124532
H       4.503111    6.766636    3.570039
