21
2101933
Fe      0.000000    0.000000    0.000000
C       0.289075    1.986165   -0.095365
C       1.065113    1.353512   -1.067787
C       1.937669    0.477531   -0.420013
C       1.700945    0.568779    0.952639
C       0.682104    1.501030    1.153008
H      -0.440624    2.662160   -0.266820
H       0.995068    1.491144   -2.065573
H       2.610328   -0.129268   -0.867419
H       2.172114    0.040301    1.672444
H       0.280074    1.764888    2.053398
C      -0.289075   -1.986165    0.095365
C      -1.065113   -1.353512    1.067787
C      -1.937669   -0.477531    0.420013
C      -1.700945   -0.568779   -0.952639
C      -0.682104   -1.501030   -1.153008
H       0.440624   -2.662160    0.266820
H      -0.995068   -1.491144    2.065573
H      -2.610328    0.129268    0.867419
H      -2.172114   -0.040301   -1.672444
H      -0.280074   -1.764888   -2.053398
