21
2101932
Fe      0.000000    0.000000    0.000000
C       0.302352    1.986136   -0.108886
C       1.062462    1.355388   -1.083863
C       1.933140    0.480822   -0.449528
C       1.710986    0.570172    0.917038
C       0.704243    1.500770    1.127816
H      -0.481814    2.700932   -0.283203
H       0.969581    1.495470   -2.146248
H       2.633342   -0.176428   -0.934519
H       2.209304   -0.004543    1.677739
H       0.284477    1.773362    2.080317
C      -0.302352   -1.986136    0.108886
C      -1.062462   -1.355388    1.083863
C      -1.933140   -0.480822    0.449528
C      -1.710986   -0.570172   -0.917038
C      -0.704243   -1.500770   -1.127816
H       0.481814   -2.700932    0.283203
H      -0.969581   -1.495470    2.146248
H      -2.633342    0.176428    0.934519
H      -2.209304    0.004543   -1.677739
H      -0.284477   -1.773362   -2.080317
