29
2102879
Pt      1.627937    3.387922    6.974923
Cl      1.984088    1.152291    6.545268
Cl      1.910594    3.840288    4.746187
N       1.466544    3.181329    8.985039
N       1.227552    5.309744    7.463551
C       1.638025    2.049903    9.687225
H       1.788786    1.234674    9.222556
C       1.600429    2.039148   11.069140
H       1.713621    1.219617   11.537264
C       1.397245    3.218972   11.782554
C       1.228679    4.388040   11.046684
H       1.099272    5.215100   11.495806
C       1.250017    4.355775    9.654577
C       1.090745    5.535599    8.799172
C       0.820776    6.813293    9.284051
H       0.728854    6.948806   10.219262
C       0.683915    7.893095    8.417590
C       0.814979    7.628522    7.046040
H       0.717315    8.332974    6.415541
C       1.085720    6.346526    6.610736
H       1.175449    6.188427    5.677944
C       1.379620    3.258765   13.281932
H       1.815529    4.080447   13.592863
H       1.860755    2.481179   13.636047
H       0.452839    3.241557   13.599772
C       0.418964    9.279414    8.928899
H      -0.431001    9.290169    9.416024
H       0.370203    9.902128    8.174028
H       1.144602    9.550440    9.528305
