24
2105932
Pt      6.387646    1.438994    7.479229
I       5.115744    2.918271    9.183326
I       8.263348    0.819405    9.140602
S       4.832957   -1.136409    7.543926
S       4.816615    2.094289    6.013168
S       7.425645    0.352481    5.800766
C       3.687599   -0.514989    6.262191
H       4.037885   -0.802238    5.402818
H       2.844212   -0.976190    6.389144
C       3.389180    0.970468    6.164535
H       2.881159    1.230252    6.945783
H       2.816501    1.108943    5.389391
C       5.350216    1.590744    4.345692
H       4.581433    1.438536    3.780508
H       5.890921    2.295707    3.945302
C       6.174419    0.320438    4.479969
H       6.616362    0.147630    3.637686
H       5.566214   -0.418858    4.649646
C       7.382303   -1.459135    5.932602
H       7.405750   -1.839083    5.045153
H       8.180927   -1.754396    6.402571
C       6.167314   -2.002735    6.665022
H       6.528968   -2.617289    7.319317
H       5.714002   -2.549768    6.008285
