24
2105879
Pd      1.426605    1.960855    3.986668
Cl      0.742258    0.148269    5.283346
Cl      3.104631    0.779570    2.961157
S      -0.179385    2.154531    1.644836
C      -1.306544    3.369640    2.378634
H      -0.921643    4.254620    2.292837
H      -2.144851    3.362690    1.885296
C      -1.596102    3.092795    3.845102
H      -1.993009    2.211290    3.918481
H      -2.256437    3.734520    4.153297
S      -0.161729    3.170404    4.955959
C       0.225997    4.924146    4.809199
H      -0.456937    5.355052    4.269575
H       0.213284    5.328410    5.687499
C       1.574915    5.160449    4.174746
H       2.180869    5.417603    4.883708
H       1.482398    5.927277    3.587708
S       2.377204    3.852672    3.226453
C       1.836224    4.210602    1.537589
H       1.249339    4.984380    1.568070
H       2.614500    4.459647    1.018286
C       1.108797    3.106695    0.797018
H       1.782550    2.476552    0.489951
H       0.711184    3.500534    0.006774
