24
2105910
Pt     -6.460316   -1.433605   -7.520446
Br     -5.285044   -2.821402   -9.175620
Br     -8.246939   -0.809159   -9.119500
S      -4.886703    1.178699   -7.455420
C      -3.808556    0.510496   -6.151240
H      -2.962603    0.983388   -6.178080
H      -4.217728    0.691676   -5.289920
C      -3.532471   -0.982249   -6.246400
H      -2.874823   -1.210149   -5.575400
H      -3.126838   -1.153174   -7.116260
S      -4.928469   -2.097136   -6.063400
C      -5.556386   -1.681902   -4.411520
H      -6.064665   -2.436251   -4.076020
H      -4.800338   -1.551999   -3.817380
C      -6.430654   -0.448963   -4.352960
H      -5.874237    0.345268   -4.316360
H      -6.976453   -0.472893   -3.551420
S      -7.505262   -0.378770   -5.827940
C      -7.476945    1.373097   -6.241520
H      -8.017789    1.495024   -7.036960
H      -7.918681    1.850548   -5.521720
C      -6.145367    2.044263   -6.486740
H      -5.758140    2.248233   -5.620540
H      -6.321636    2.889772   -6.925940
