24
2105917
Pd      6.942405    1.538900    7.814136
I       5.759186    3.073514    9.548107
I       8.855672    0.937582    9.499518
S       5.311663   -1.111638    7.789907
S       5.349822    2.158997    6.311388
S       8.005653    0.373067    6.158976
C       4.207356   -0.436085    6.518511
H       4.553072   -0.698239    5.650939
H       3.338869   -0.854524    6.621421
C       4.005116    1.067525    6.506787
H       3.568583    1.301952    7.341792
H       3.373975    1.264141    5.796837
C       6.046596    1.692663    4.707813
H       5.316242    1.538900    4.087747
H       6.565552    2.438797    4.369122
C       6.915847    0.480197    4.724748
H       7.457697    0.475156    3.921007
H       6.350338   -0.308788    4.702603
C       7.899573   -1.391437    6.617513
H       8.334580   -1.903144    5.917984
H       8.420055   -1.516213    7.426465
C       6.538841   -2.001452    6.850689
H       6.676974   -2.854715    7.290988
H       6.154966   -2.191766    5.980512
