24
2105920
Pd      6.573749    1.487932    7.549196
I       5.361435    2.982959    9.265741
I       8.454836    0.875094    9.259234
S       5.009988   -1.099632    7.584735
S       4.972237    2.129502    6.069290
S       7.614078    0.342896    5.870317
C       3.883993   -0.520256    6.340844
H       4.229559   -0.782749    5.473624
H       3.036048   -0.967203    6.465984
C       3.637160    0.945920    6.309559
H       3.201572    1.177670    7.146745
H       2.985956    1.107909    5.606272
C       5.590046    1.584416    4.418693
H       4.824863    1.430704    3.844301
H       6.097506    2.319869    4.030759
C       6.446702    0.364179    4.409934
H       6.961422    0.336984    3.587764
H       5.883342   -0.423299    4.437464
C       7.550192   -1.454352    6.303302
H       7.904470   -1.943866    5.546205
H       8.163645   -1.591510    7.042879
C       6.265207   -2.069200    6.671213
H       6.465578   -2.855496    7.201807
H       5.849947   -2.380171    5.851546
