24
2105918
Pd      6.738103    1.509386    7.763473
I       5.545749    3.029630    9.495105
I       8.628784    0.915441    9.466623
S       5.142354   -1.107851    7.762442
S       5.141611    2.138835    6.267434
S       7.788564    0.348949    6.089580
C       4.033947   -0.500241    6.547104
H       4.360080   -0.793065    5.679742
H       3.177383   -0.922396    6.687583
C       3.803648    0.951678    6.456888
H       3.321506    1.198138    7.259810
H       3.200413    1.087109    5.713250
C       5.802049    1.634934    4.606171
H       5.051720    1.469000    4.015901
H       6.302764    2.381635    4.237574
C       6.686100    0.427035    4.601016
H       7.231389    0.445337    3.794227
H       6.131154   -0.364810    4.562352
C       7.696444   -1.415316    6.521328
H       8.073094   -1.905796    5.771246
H       8.287050   -1.553187    7.272698
C       6.381511   -2.061969    6.856416
H       6.574665   -2.859914    7.377091
H       5.975888   -2.358453    6.026429
