24
2105880
Pd      1.402964    1.941625    3.965086
Cl      0.762312    0.128836    5.263587
Cl      3.107618    0.760362    2.915735
S      -0.155416    2.144196    1.629580
C      -1.329124    3.370438    2.278269
H      -0.964845    4.263086    2.166039
H      -2.162463    3.319824    1.781090
C      -1.582290    3.094361    3.737259
H      -1.981730    2.208614    3.803475
H      -2.245445    3.724736    4.048136
S      -0.201830    3.138073    4.926897
C       0.267231    4.867004    4.837113
H      -0.451480    5.359341    4.410639
H       0.364278    5.208649    5.737198
C       1.533063    5.138479    4.085172
H       2.170902    5.496229    4.726005
H       1.343892    5.845926    3.453317
S       2.364996    3.823664    3.187332
C       1.729970    4.256184    1.548774
H       1.070331    4.957879    1.655393
H       2.459934    4.617384    1.025782
C       1.097054    3.140374    0.763164
H       1.804514    2.538756    0.469121
H       0.689878    3.514228   -0.029180
