24
2105876
Pd      1.321022    1.602937    4.368131
Cl      0.231542    0.036624    5.709204
Cl      3.052018    0.167760    3.763655
S      -0.269168    1.837093    1.767830
C      -1.316897    3.111834    2.443628
H      -0.901568    3.973082    2.281109
H      -2.163474    3.100020    1.972440
C      -1.594748    2.979516    3.951896
H      -2.038297    2.130082    4.101554
H      -2.219913    3.677729    4.204443
S      -0.205494    3.069303    5.055621
C       0.528206    4.681928    4.665108
H      -0.200429    5.315164    4.547019
H       1.035429    4.971373    5.434442
C       1.382019    4.783529    3.507600
H       1.955086    5.560897    3.601136
H       0.839341    4.902851    2.714882
S       2.410212    3.289045    3.322866
C       2.368968    2.874371    1.625188
H       2.881256    3.546593    1.144647
H       2.840012    2.032025    1.514114
C       1.007933    2.736146    0.911976
H       1.159159    2.301387    0.052614
H       0.675091    3.628110    0.720227
