24
2105925
Pd      6.372235    1.454877    7.386379
I       5.148214    2.939737    9.084348
I       8.219465    0.827998    9.086181
S       4.866506   -1.081702    7.452978
S       4.800304    2.129960    5.929144
S       7.394131    0.342500    5.679856
C       3.690375   -0.484344    6.206538
H       4.027720   -0.713831    5.327920
H       2.848068   -0.953696    6.327516
C       3.415710    1.005590    6.244420
H       3.055123    1.218932    7.119372
H       2.724116    1.197022    5.593094
C       5.408794    1.616786    4.297774
H       4.644661    1.512998    3.705104
H       5.961646    2.324851    3.938506
C       6.204619    0.326356    4.294108
H       6.678592    0.236406    3.453372
H       5.603172   -0.431297    4.385758
C       7.366664   -1.384993    6.232200
H       7.849793   -1.910852    5.575986
H       7.871626   -1.435734    7.061938
C       6.035594   -2.058462    6.464380
H       6.189125   -2.903758    6.918964
H       5.629934   -2.253353    5.608980
