24
2105895
Pd      6.959399    1.507717    7.654190
Br      5.793966    2.899099    9.303192
Br      8.781987    0.927751    9.208992
S       5.349147   -1.163114    7.505856
C       4.244456   -0.486873    6.234784
H       4.618723   -0.692388    5.363120
H       3.389528   -0.939494    6.298840
C       3.998466    1.021456    6.308888
H       3.569871    1.206174    7.159200
H       3.360855    1.247766    5.614320
S       5.399703    2.147381    6.149376
C       6.106735    1.750542    4.530392
H       5.380839    1.612309    3.902392
H       6.619088    2.513882    4.222672
C       7.006182    0.523572    4.505272
H       7.569846    0.557825    3.716504
H       6.456855   -0.272796    4.444984
S       8.060317    0.416044    5.991120
C       7.993160   -1.355416    6.395552
H       8.488158   -1.833727    5.711032
H       8.466275   -1.485086    7.232048
C       6.623615   -2.023338    6.528688
H       6.757174   -2.900444    6.920560
H       6.271231   -2.159124    5.635672
