24
2105897
Pd      6.668605    1.462973    7.461468
Br      5.496697    2.889932    9.093588
Br      8.500205    0.844984    9.018072
S       5.093698   -1.148465    7.370118
C       3.942378   -0.507952    6.114360
H       4.279670   -0.744918    5.236182
H       3.085276   -0.949038    6.226416
C       3.720437    0.993616    6.150900
H       3.299916    1.197735    7.005936
H       3.074325    1.207120    5.463948
S       5.113410    2.139734    5.958456
C       5.804057    1.700995    4.333644
H       5.068876    1.582512    3.710028
H       6.337738    2.444740    4.015746
C       6.665539    0.439913    4.308066
H       7.203601    0.429355    3.500532
H       6.095354   -0.344891    4.300758
S       7.755534    0.389469    5.769666
C       7.727791   -1.374873    6.211800
H       8.200876   -1.861710    5.513886
H       8.227889   -1.487491    7.029078
C       6.361100   -2.029463    6.394500
H       6.504194   -2.895211    6.808620
H       5.990954   -2.194870    5.511450
