24
2105919
Pd      6.653836    1.503623    7.690778
I       5.452194    3.030694    9.422548
I       8.543704    0.896130    9.401370
S       5.080537   -1.115630    7.714763
S       5.060705    2.152695    6.188906
S       7.704905    0.340853    6.001363
C       3.958955   -0.507654    6.442790
H       4.323267   -0.749394    5.573970
H       3.109873   -0.959708    6.538475
C       3.716570    0.966960    6.455548
H       3.315533    1.179691    7.311610
H       3.042299    1.148265    5.779374
C       5.736445    1.619658    4.554606
H       4.982848    1.495162    3.951153
H       6.264550    2.350922    4.199934
C       6.581120    0.362610    4.503574
H       7.112164    0.351732    3.693441
H       6.011148   -0.421836    4.508677
C       7.616765   -1.365831    6.468306
H       8.093456   -1.869859    5.792132
H       8.125773   -1.457692    7.292473
C       6.302010   -2.066877    6.697950
H       6.467272   -2.915384    7.124067
H       5.898770   -2.248182    5.827854
