24
2105905
Pd      6.216091    1.362611    7.142472
Br      5.026228    2.766844    8.749296
Br      8.049235    0.706576    8.629713
S       4.736135   -1.081280    7.047270
C       3.689604   -0.496596    5.688900
H       4.151147   -0.628728    4.843692
H       2.869387   -1.018517    5.661036
C       3.339846    0.974474    5.839830
H       2.943454    1.105504    6.719868
H       2.667076    1.204603    5.181543
S       4.737506    2.114112    5.664519
C       5.342382    1.663762    4.005450
H       4.582516    1.531630    3.423789
H       5.860161    2.405904    3.654828
C       6.206490    0.409609    3.970620
H       6.749644    0.406306    3.163725
H       5.645506   -0.379879    3.961332
S       7.285253    0.385385    5.436963
C       7.351776   -1.373072    5.886270
H       7.781087   -1.858657    5.161806
H       7.906588   -1.469968    6.673428
C       6.014466   -2.016114    6.164910
H       6.177001   -2.829827    6.660657
H       5.633847   -2.280378    5.305770
