24
2105893
Pt      6.508034    1.419003    7.201126
Cl      5.383637    2.722697    8.734846
Cl      8.228379    0.778562    8.670015
S       4.911857   -1.203026    7.059655
C       3.935251   -0.508449    5.685465
H       4.439373   -0.608322    4.862340
H       3.117545   -1.022572    5.594006
C       3.573154    0.966960    5.864908
H       3.139342    1.075914    6.726237
H       2.931927    1.213240    5.180708
S       4.994822    2.122319    5.776923
C       5.623394    1.769356    4.097100
H       4.874592    1.585497    3.507831
H       6.084627    2.552458    3.757894
C       6.572579    0.584489    4.080893
H       7.163183    0.670744    3.316810
H       6.053691   -0.226986    3.960492
S       7.582933    0.410845    5.578956
C       7.556919   -1.358511    5.944789
H       8.010418   -1.809078    5.215439
H       8.094790   -1.495838    6.740129
C       6.237903   -2.072382    6.164752
H       6.425631   -2.894071    6.644040
H       5.890572   -2.323202    5.295320
