24
2105928
Pt      6.906467    1.540911    7.877122
I       5.678787    3.074134    9.585930
I       8.842365    1.023058    9.578145
S       5.248332   -1.201628    7.888800
S       5.304345    2.080837    6.370725
S       7.969945    0.342259    6.266925
C       4.166439   -0.558031    6.578325
H       4.560064   -0.783724    5.721975
H       3.313201   -1.021818    6.635415
C       3.913230    0.930053    6.630225
H       3.521907    1.139624    7.489170
H       3.239541    1.137144    5.955525
C       5.946575    1.599690    4.735875
H       5.201527    1.385158    4.148108
H       6.419232    2.354893    4.342732
C       6.882681    0.409223    4.813725
H       7.435904    0.403023    4.022250
H       6.344036   -0.396822    4.803345
C       7.887844   -1.401279    6.772950
H       8.401168   -1.922108    6.129390
H       8.339784   -1.489324    7.626705
C       6.522050   -2.058516    6.902700
H       6.646353   -2.938966    7.281570
H       6.163721   -2.176323    6.008723
