24
2105881
Pd      1.373048    1.905231    3.926171
Cl      0.730256    0.101046    5.225632
Cl      3.049445    0.744790    2.875709
S      -0.152021    2.124240    1.611820
C      -1.305021    3.366313    2.278780
H      -0.915597    4.251886    2.204303
H      -2.132460    3.352689    1.773002
C      -1.582685    3.042738    3.734976
H      -1.955449    2.146947    3.768324
H      -2.268515    3.650150    4.044001
S      -0.212413    3.108588    4.919942
C       0.236014    4.853621    4.868808
H      -0.492159    5.361123    4.487529
H       0.376235    5.171519    5.780320
C       1.478561    5.092045    4.079572
H       2.130377    5.476928    4.684282
H       1.264760    5.783473    3.429286
S       2.333072    3.795475    3.169172
C       1.777050    4.150840    1.475093
H       1.163412    4.900171    1.519557
H       2.550344    4.444895    0.968204
C       1.103714    3.054092    0.678076
H       1.780520    2.434190    0.371274
H       0.683053    3.446923   -0.097821
