24
2105914
Pt     -6.268010   -1.385550   -7.370265
Br     -5.062538   -2.756042   -9.002350
Br     -8.056082   -0.729756   -8.926190
S      -4.748241    1.137094   -7.317310
C      -3.692540    0.523706   -5.973800
H      -2.854047    1.010874   -5.983320
H      -4.127646    0.696429   -5.124140
C      -3.404308   -0.974336   -6.092800
H      -2.738893   -1.203526   -5.426400
H      -3.003680   -1.131558   -6.963880
S      -4.761343   -2.090394   -5.913110
C      -5.359872   -1.680730   -4.251870
H      -5.856348   -2.436947   -3.902010
H      -4.597230   -1.534579   -3.671150
C      -6.237669   -0.467238   -4.212600
H      -5.684650    0.328838   -4.166190
H      -6.789309   -0.494918   -3.414110
S      -7.311988   -0.376448   -5.690580
C      -7.311299    1.356320   -6.069000
H      -7.907070    1.494720   -6.817510
H      -7.698136    1.820237   -5.306210
C      -6.010807    2.021747   -6.390300
H      -5.610868    2.295226   -5.547780
H      -6.216293    2.832218   -6.879390
