24
2105878
Pd      1.249922    1.554766    4.269072
Cl      0.160664   -0.004060    5.604663
Cl      2.986082    0.134572    3.632864
S      -0.333360    1.781914    1.720469
C      -1.408462    3.092827    2.384210
H      -0.983093    3.969862    2.213991
H      -2.269111    3.076585    1.894116
C      -1.691570    2.967536    3.865915
H      -2.172146    2.114862    4.013286
H      -2.305915    3.698399    4.121815
S      -0.270368    3.009299    4.994617
C       0.417584    4.654321    4.635900
H      -0.336899    5.286576    4.512519
H       0.931425    4.957107    5.424163
C       1.316452    4.732048    3.413521
H       1.895408    5.529037    3.482066
H       0.756606    4.828336    2.600125
S       2.346965    3.239115    3.266150
C       2.349796    2.864287    1.505696
H       2.797107    3.610231    1.035023
H       2.899026    2.054537    1.366322
C       1.005033    2.634587    0.846526
H       1.170652    2.131104    0.010282
H       0.654687    3.523224    0.579202
