24
2105912
Pt     -6.356033   -1.407877   -7.441202
Br     -5.165921   -2.785934   -9.078160
Br     -8.140887   -0.766496   -9.017960
S      -4.811952    1.157872   -7.369684
C      -3.751159    0.514585   -6.047692
H      -2.910201    0.998900   -6.060936
H      -4.177570    0.689476   -5.194056
C      -3.458045   -0.976478   -6.152440
H      -2.809007   -1.201819   -5.466160
H      -3.037217   -1.139038   -7.009688
S      -4.832888   -2.094327   -5.993512
C      -5.449125   -1.673802   -4.336808
H      -5.949512   -2.432787   -3.998484
H      -4.684936   -1.549360   -3.752868
C      -6.322883   -0.452924   -4.229652
H      -5.773644    0.344178   -4.169452
H      -6.872821   -0.506737   -3.432604
S      -7.399030   -0.372317   -5.738264
C      -7.385072    1.364379   -6.176520
H      -7.920354    1.468641   -6.981996
H      -7.833815    1.852057   -5.472180
C      -6.062570    2.029191   -6.429360
H      -5.678731    2.243321   -5.560072
H      -6.237043    2.870016   -6.873636
