24
2105909
Pt     -6.514849   -1.442789   -7.650292
Br     -5.351774   -2.825830   -9.322500
Br     -8.295495   -0.836705   -9.262836
S      -4.921884    1.182351   -7.582300
C      -3.874068    0.500005   -6.277150
H      -3.028687    0.975927   -6.285851
H      -4.298184    0.672025   -5.424452
C      -3.584671   -0.995422   -6.376590
H      -2.909650   -1.219048   -5.721529
H      -3.204036   -1.172030   -7.255391
S      -4.977482   -2.088323   -6.147878
C      -5.590490   -1.655979   -4.503389
H      -6.065928   -2.419748   -4.139190
H      -4.830646   -1.481666   -3.925394
C      -6.502874   -0.462160   -4.473557
H      -5.970413    0.346334   -4.410164
H      -7.067412   -0.510326   -3.686738
S      -7.558531   -0.377297   -5.973858
C      -7.515050    1.362398   -6.351730
H      -8.062481    1.506895   -7.136063
H      -7.943443    1.831440   -5.614631
C      -6.172848    2.025249   -6.600330
H      -5.778670    2.212177   -5.727744
H      -6.345346    2.881908   -7.016735
