24
2105904
Pd      6.237719    1.375283    7.161406
Br      5.044497    2.780070    8.752184
Br      8.056435    0.719466    8.661548
S       4.755400   -1.080690    7.090524
C       3.680668   -0.502775    5.736794
H       4.121301   -0.659685    4.887372
H       2.854480   -1.012180    5.743766
C       3.362585    0.967980    5.868100
H       2.969457    1.112735    6.748896
H       2.688553    1.194505    5.212732
S       4.740254    2.108340    5.682180
C       5.348190    1.663025    4.029816
H       4.586032    1.518270    3.447654
H       5.852853    2.410005    3.673082
C       6.227392    0.422110    3.998442
H       6.771988    0.427635    3.195500
H       5.670404   -0.372385    3.979850
S       7.302125    0.381225    5.466048
C       7.326222   -1.373515    5.868100
H       7.721415   -1.846455    5.115124
H       7.912127   -1.500590    6.626886
C       6.002944   -2.023255    6.181840
H       6.186771   -2.829905    6.684986
H       5.605686   -2.299505    5.338228
