24
2105903
Pd      6.209662    1.369867    7.305760
Br      5.027215    2.764033    8.925836
Br      8.013130    0.722152    8.834514
S       4.734720   -1.078609    7.252390
C       3.671600   -0.510168    5.890862
H       4.124385   -0.645406    5.044058
H       2.850285   -1.026933    5.880188
C       3.346225    0.956565    6.060460
H       3.009890    1.091804    6.963006
H       2.632455    1.186361    5.447298
S       4.724445    2.094548    5.790052
C       5.308750    1.650350    4.124908
H       4.542920    1.497519    3.553256
H       5.806745    2.399109    3.758434
C       6.199250    0.416711    4.096444
H       6.745880    0.426606    3.295894
H       5.645085   -0.380427    4.073910
S       7.267165    0.379328    5.571828
C       7.297305   -1.343589    6.107900
H       7.793245   -1.854856    5.446112
H       7.792560   -1.391967    6.939286
C       5.970460   -2.017582    6.309520
H       6.125955   -2.858700    6.773246
H       5.596450   -2.227587    5.443740
