24
2105906
Pt     -6.912016   -1.514584   -7.917168
Br     -5.761912   -2.886755   -9.614748
Br     -8.704955   -0.971197   -9.542340
S      -5.256292    1.225593   -7.760586
C      -4.184650    0.493006   -6.468879
H      -3.318343    0.928939   -6.505083
H      -4.572839    0.686079   -5.601276
C      -3.976316   -0.994512   -6.580077
H      -3.321341   -1.244658   -5.909010
H      -3.572390   -1.165728   -7.445094
S      -5.360458   -2.106811   -6.411987
C      -6.052904   -1.706092   -4.745310
H      -6.528773   -2.483244   -4.414302
H      -5.315494   -1.534875   -4.138893
C      -6.978413   -0.533078   -4.706520
H      -6.461327    0.279289   -4.592736
H      -7.573436   -0.619293   -3.947529
S      -7.984108   -0.404119   -6.261999
C      -7.879192    1.344230   -6.656364
H      -8.320588    1.475374   -7.509744
H      -8.400774    1.821450   -5.993055
C      -6.532520    2.016952   -6.736530
H      -6.184049    2.097096   -5.837895
H      -6.668161    2.915534   -7.075296
