24
2105877
Pd      1.283856    1.575200    4.318511
Cl      0.196680    0.012865    5.657504
Cl      3.015998    0.150866    3.701581
S      -0.295378    1.811556    1.735261
C      -1.366032    3.113209    2.407645
H      -0.949786    3.976300    2.260922
H      -2.212829    3.106192    1.933972
C      -1.625650    2.933106    3.887585
H      -2.042611    2.065337    4.007736
H      -2.277912    3.599721    4.152148
S      -0.243168    3.034853    5.047506
C       0.477038    4.651102    4.655859
H      -0.251035    5.286140    4.564590
H       1.008432    4.931782    5.417202
C       1.345291    4.761035    3.419688
H       1.911014    5.546939    3.476298
H       0.788866    4.842900    2.627152
S       2.373034    3.258227    3.301847
C       2.373034    2.881648    1.533083
H       2.839344    3.597382    1.073274
H       2.887978    2.070015    1.399068
C       1.024882    2.695698    0.867630
H       1.177934    2.236084    0.027727
H       0.686592    3.578670    0.649279
