24
2105923
Pd      6.395324    1.445743    7.438681
I       5.174579    2.917444    9.153641
I       8.251078    0.826073    9.153887
S       4.886093   -1.071644    7.483775
S       4.813282    2.119167    5.974453
S       7.420329    0.336540    5.730497
C       3.753639   -0.424982    6.271389
H       4.088710   -0.676525    5.394134
H       2.905359   -0.884422    6.388438
C       3.485017    0.976310    6.246747
H       3.075015    1.203733    7.094432
H       2.822652    1.131371    5.558003
C       5.414854    1.573582    4.345617
H       4.648574    1.461019    3.761601
H       5.961995    2.283417    3.971058
C       6.199513    0.321608    4.324671
H       6.675257    0.242355    3.481915
H       5.609958   -0.442211    4.413382
C       7.387105   -1.378320    6.199927
H       7.778728   -1.898636    5.476685
H       7.965349   -1.493180    6.973686
C       6.058133   -1.975592    6.530130
H       6.219306   -2.811773    6.989703
H       5.627631   -2.198420    5.686141
