24
2105913
Pt     -6.293602   -1.392291   -7.377050
Br     -5.089591   -2.762586   -9.005560
Br     -8.083252   -0.739748   -8.943576
S      -4.767880    1.140894   -7.331992
C      -3.709812    0.511014   -5.983840
H      -2.872492    1.000921   -5.992184
H      -4.147156    0.679871   -5.138712
C      -3.413636   -0.964261   -6.103040
H      -2.754160   -1.188663   -5.424792
H      -3.003972   -1.122009   -6.966048
S      -4.778260   -2.088492   -5.927816
C      -5.380992   -1.670794   -4.282856
H      -5.873004   -2.431760   -3.937176
H      -4.614256   -1.534153   -3.703544
C      -6.264676   -0.456580   -4.195840
H      -5.719380    0.343268   -4.133856
H      -6.812740   -0.507681   -3.391240
S      -7.340736   -0.373262   -5.679880
C      -7.335200    1.364185   -6.067280
H      -7.926860    1.497493   -6.825392
H      -7.726180    1.834096   -5.315128
C      -6.021784    2.034058   -6.389120
H      -5.617656    2.301785   -5.552336
H      -6.224540    2.847237   -6.881416
