24
2105930
Pt      6.577403    1.476901    7.683464
I       5.332358    2.979020    9.407656
I       8.472176    0.900305    9.353618
S       4.995662   -1.178410    7.741272
S       5.002966    2.076358    6.195531
S       7.624958    0.339382    6.032160
C       3.775961   -0.494932    6.572541
H       3.973158   -0.896770    5.709188
H       2.914136   -0.848455    6.842732
C       3.556853    0.989864    6.308634
H       2.985712    1.329246    7.007359
H       3.064591    1.066461    5.471672
C       5.601861    1.567285    4.549254
H       4.843017    1.386989    3.977456
H       6.104349    2.301435    4.157164
C       6.492900    0.329955    4.612089
H       7.008535    0.278105    3.796491
H       5.926871   -0.453688    4.662357
C       7.544619   -1.467120    6.245799
H       7.706028   -1.868958    5.371136
H       8.282282   -1.731084    6.815084
C       6.273792   -2.074002    6.811314
H       6.562285   -2.805794    7.380599
H       5.820239   -2.491159    6.054781
