24
2105924
Pd      6.389258    1.449739    7.431280
I       5.171045    2.934137    9.141365
I       8.243924    0.831613    9.139397
S       4.896877   -1.070895    7.492539
S       4.818442    2.119912    5.952454
S       7.408911    0.335087    5.727346
C       3.745086   -0.498599    6.209545
H       4.114648   -0.721990    5.341094
H       2.910568   -0.985684    6.305493
C       3.441239    0.986836    6.236607
H       3.049065    1.198712    7.097677
H       2.762178    1.165318    5.562512
C       5.448040    1.651251    4.311501
H       4.693370    1.540707    3.709982
H       5.994257    2.373242    3.968303
C       6.260653    0.375389    4.313961
H       6.766593    0.313208    3.487333
H       5.666386   -0.389207    4.359474
C       7.384179   -1.412890    6.199704
H       7.793312   -1.917247    5.483786
H       7.960074   -1.510768    6.979587
C       6.062800   -2.077306    6.531831
H       6.242988   -2.891416    7.026331
H       5.633175   -2.330636    5.699053
