24
2105899
Pd      6.465542    1.427657    7.331160
Br      5.297122    2.844690    8.946642
Br      8.279416    0.795339    8.867838
S       4.927886   -1.124122    7.265490
C       3.805975   -0.503798    5.970000
H       4.189413   -0.702576    5.104350
H       2.961702   -0.973325    6.039252
C       3.550350    0.984749    6.065520
H       3.164782    1.161821    6.939528
H       2.875784    1.208659    5.406432
S       4.934276    2.122579    5.841048
C       5.581150    1.685040    4.193328
H       4.831316    1.547952    3.592746
H       6.095241    2.433312    3.853038
C       6.454536    0.439824    4.171836
H       6.999870    0.440966    3.367080
H       5.895001   -0.350717    4.153926
S       7.540233    0.382704    5.636874
C       7.533843   -1.359456    6.101340
H       7.994678   -1.852973    5.404044
H       8.059295   -1.451990    6.910872
C       6.199621   -2.032330    6.340140
H       6.367198   -2.866282    6.804606
H       5.826124   -2.260810    5.470908
