24
2105889
Pt      6.659165    1.451126    7.281030
Cl      5.548768    2.748905    8.863108
Cl      8.378997    0.839590    8.776284
S       5.016802   -1.215439    7.066786
C       4.002272   -0.490339    5.740957
H       4.467653   -0.588638    4.893834
H       3.163871   -0.969113    5.679945
C       3.728772    0.991086    5.995563
H       3.377230    1.076664    6.899004
H       3.029985    1.275575    5.388967
S       5.120617    2.137138    5.830128
C       5.756399    1.763602    4.168735
H       5.011790    1.576255    3.578565
H       6.217483    2.546525    3.823785
C       6.708639    0.587482    4.140576
H       7.294302    0.679998    3.372064
H       6.193856   -0.224353    4.020899
S       7.734624    0.408230    5.630667
C       7.685222   -1.366936    5.995563
H       8.162774   -1.824894    5.289236
H       8.188549   -1.509180    6.815700
C       6.339914   -2.064281    6.171558
H       6.501724   -2.909653    6.611546
H       6.004840   -2.270131    5.278677
