24
2105896
Pd      6.637735    1.460003    7.464692
Br      5.477629    2.877030    9.095100
Br      8.454825    0.847101    9.024950
S       5.067159   -1.147229    7.363920
C       3.959478   -0.501188    6.082920
H       4.343590   -0.689719    5.211840
H       3.110655   -0.967246    6.139040
C       3.706792    0.993008    6.193940
H       3.317597    1.160461    7.066240
H       3.035866    1.227208    5.532700
S       5.089378    2.126770    5.987760
C       5.747887    1.701463    4.359060
H       5.002172    1.557430    3.755160
H       6.250355    2.460271    4.024780
C       6.653346    0.464887    4.310260
H       7.206642    0.498846    3.513600
H       6.106585   -0.336077    4.262680
S       7.716081    0.389592    5.788900
C       7.696040   -1.370070    6.231760
H       8.183986   -1.854864    5.547340
H       8.187616   -1.474289    7.061360
C       6.330227   -2.049250    6.406220
H       6.473997   -2.907593    6.833220
H       5.967898   -2.223729    5.522940
