24
2105890
Pt      6.621045    1.443515    7.268947
Cl      5.507917    2.730694    8.871909
Cl      8.341334    0.809308    8.691591
S       5.002663   -1.214537    7.039451
C       3.962223   -0.486966    5.737410
H       4.410467   -0.613600    4.879140
H       3.127020   -0.975083    5.697599
C       3.651516    0.998108    5.901336
H       3.198283    1.118986    6.744384
H       3.029390    1.253679    5.197625
S       5.069650    2.143572    5.840449
C       5.736671    1.828137    4.167233
H       4.997674    1.715318    3.546656
H       6.251190    2.597152    3.879192
C       6.620333    0.583669    4.125081
H       7.171908    0.618205    3.327698
H       6.055930   -0.201463    4.059510
S       7.699255    0.409834    5.573484
C       7.649370   -1.361893    5.971590
H       8.142510   -1.826986    5.273734
H       8.139660   -1.488527    6.794733
C       6.321028   -2.059533    6.123807
H       6.484220   -2.912587    6.553527
H       5.985379   -2.251786    5.230410
