24
2105908
Pt     -6.580621   -1.458128   -7.745094
Br     -5.429223   -2.841043   -9.434880
Br     -8.361820   -0.866625   -9.373140
S      -4.978010    1.196796   -7.644420
C      -3.901023    0.513393   -6.346620
H      -3.046191    0.971158   -6.379380
H      -4.300040    0.697658   -5.482260
C      -3.658737   -0.975794   -6.463800
H      -2.982924   -1.214527   -5.809860
H      -3.280569   -1.144993   -7.339500
S      -5.041277   -2.085672   -6.244560
C      -5.671078   -1.686200   -4.583880
H      -6.166434   -2.447597   -4.243680
H      -4.919056   -1.533225   -3.990420
C      -6.566889   -0.468196   -4.567500
H      -6.018330    0.330286   -4.520880
H      -7.124795   -0.493691   -3.774960
S      -7.628059   -0.378497   -6.040440
C      -7.579171    1.351277   -6.539400
H      -8.022044    1.419652   -7.402500
H      -8.111194    1.856558   -5.906880
C      -6.246238    2.030393   -6.661620
H      -5.894671    2.160190   -5.765760
H      -6.391465    2.911157   -7.043400
