24
2105884
Pt      7.108404    1.525476    7.556819
Cl      5.987074    2.786786    9.179170
Cl      8.831915    0.982998    9.034809
S       5.433805   -1.263506    7.284124
C       4.386898   -0.475644    6.019128
H       4.795999   -0.624435    5.151737
H       3.527180   -0.924457    6.014234
C       4.145362    1.013488    6.178170
H       3.712106    1.146424    7.038220
H       3.510575    1.281800    5.497960
S       5.546270    2.159058    6.098649
C       6.298806    1.846474    4.471527
H       5.588539    1.737930    3.819455
H       6.813580    2.628238    4.214613
C       7.210604    0.620776    4.403017
H       7.797839    0.698831    3.634721
H       6.670168   -0.176842    4.286794
S       8.215243    0.452228    5.916362
C       8.128441   -1.308631    6.361680
H       8.726998   -1.792812    5.776895
H       8.479423   -1.400101    7.265773
C       6.792445   -1.998924    6.326201
H       6.916987   -2.908746    6.635722
H       6.510150   -2.047708    5.398864
