24
2105891
Pt      6.575924    1.433629    7.248321
Cl      5.468006    2.741839    8.799734
Cl      8.293793    0.797605    8.711095
S       4.954871   -1.203846    7.058448
C       3.947738   -0.490922    5.718369
H       4.421891   -0.611078    4.878633
H       3.116374   -0.981844    5.658888
C       3.635888    0.985277    5.889815
H       3.207803    1.103144    6.757542
H       2.991634    1.240465    5.215694
S       5.038504    2.128472    5.800010
C       5.711816    1.797758    4.131035
H       4.975425    1.666159    3.514062
H       6.212903    2.573621    3.833628
C       6.618308    0.576747    4.086715
H       7.195230    0.638542    3.309959
H       6.071861   -0.219713    3.987580
S       7.645995    0.407385    5.578413
C       7.602053   -1.350321    5.983119
H       8.087546   -1.817212    5.278674
H       8.103848   -1.471621    6.798363
C       6.274564   -2.056379    6.158064
H       6.445373   -2.898613    6.602424
H       5.935073   -2.269226    5.269343
