24
2105927
Pd      6.295040    1.431583    7.350720
I       5.059982    2.892544    9.057984
I       8.133008    0.798839    9.072576
S       4.816312   -1.053067    7.421248
S       4.721628    2.118563    5.884224
S       7.289214    0.323151    5.643456
C       3.668974   -0.531053    6.116480
H       4.056061   -0.757033    5.250688
H       2.843281   -1.037248    6.202816
C       3.355684    0.937817    6.140800
H       2.953977    1.140069    7.007808
H       2.679674    1.117471    5.470784
C       5.277196    1.570561    4.246272
H       4.495363    1.403336    3.699072
H       5.773587    2.293697    3.834048
C       6.140484    0.338970    4.219520
H       6.648014    0.312982    3.392640
H       5.577954   -0.454220    4.248704
C       7.247442   -1.419154    6.128640
H       7.649149   -1.923090    5.401472
H       7.842693   -1.512936    6.889856
C       5.966434   -2.112913    6.481280
H       6.166940   -2.901583    7.016320
H       5.527132   -2.411207    5.672640
