24
2105883
Pt      1.460703    1.625594    4.599382
Cl      0.329795    0.019584    5.854562
Cl      3.167089    0.126072    4.058819
S      -0.213308    1.911888    1.812302
S      -0.090769    3.085704    5.226665
S       2.567256    3.252168    3.527947
C      -1.267743    3.123648    2.599165
H      -0.892564    4.001256    2.427441
H      -2.133833    3.091824    2.163722
C      -1.493153    2.997576    4.096844
H      -1.937166    2.149344    4.251396
H      -2.117192    3.694032    4.354430
C       0.636141    4.738104    4.853656
H      -0.087744    5.362344    4.684385
H       1.111923    5.050224    5.638680
C       1.573333    4.771152    3.687160
H       2.169384    5.530032    3.782834
H       1.059730    4.898448    2.873924
C       2.469679    2.887416    1.758944
H       3.032448    3.530016    1.298969
H       2.869063    2.014704    1.621565
C       1.119487    2.884968    1.057329
H       1.252615    2.558160    0.154552
H       0.816166    3.802968    0.988640
