24
2105933
Pt      6.351280    1.431676    7.490238
I       5.082239    2.905478    9.163693
I       8.228690    0.809481    9.156364
S       4.823569   -1.153311    7.597730
S       4.801659    2.092581    6.035431
S       7.377763    0.347246    5.831441
C       3.618560   -0.523715    6.388445
H       3.894193   -0.829974    5.508965
H       2.765513   -0.936994    6.578999
C       3.378265    0.982534    6.278510
H       2.926652    1.262608    7.094472
H       2.761272    1.130540    5.549275
C       5.350098    1.582529    4.372970
H       4.578327    1.439077    3.806194
H       5.895709    2.278159    3.982090
C       6.155792    0.296013    4.482905
H       6.613060    0.133206    3.647399
H       5.547988   -0.448573    4.639257
C       7.371402   -1.450462    6.034210
H       7.492964   -1.858048    5.158394
H       8.126918   -1.703211    6.581442
C       6.113387   -2.015163    6.657175
H       6.415170   -2.730147    7.236166
H       5.641985   -2.454628    5.924275
