24
2105931
Pt      6.401173    1.446479    7.517215
I       5.139846    2.913837    9.210613
I       8.272874    0.824822    9.192206
S       4.872175   -1.144886    7.681646
S       4.824479    2.094751    5.971069
S       7.437827    0.337271    5.782095
C       3.573688   -0.470344    6.601798
H       3.656979   -0.940688    5.762462
H       2.732234   -0.749109    6.993243
C       3.395715    0.998047    6.245939
H       2.864645    1.399560    6.947840
H       2.861798    1.026726    5.436053
C       5.467315    1.651939    4.331663
H       4.720543    1.485598    3.736519
H       5.967062    2.401048    3.977031
C       6.378534    0.412985    4.307121
H       6.932385    0.442811    3.515642
H       5.828955   -0.382011    4.266627
C       7.382299   -1.468390    6.000519
H       7.447081   -1.888258    5.131732
H       8.158971   -1.740272    6.517128
C       6.136492   -1.996093    6.699966
H       6.466809   -2.700462    7.279157
H       5.641728   -2.443493    5.996838
