24
2105929
Pt      6.582411    1.488854    7.797124
I       5.355306    2.998362    9.521414
I       8.479845    0.930608    9.526542
S       4.989006   -1.166821    7.897120
S       5.015380    2.081998    6.289492
S       7.616842    0.339482    6.149754
C       3.904758   -0.510410    6.589480
H       4.311351   -0.737127    5.736950
H       3.063001   -0.988771    6.639478
C       3.604392    0.973340    6.589480
H       3.215381    1.203618    7.447138
H       2.934796    1.144268    5.910020
C       5.626368    1.590580    4.640840
H       4.867394    1.375733    4.081888
H       6.090104    2.338390    4.247266
C       6.564096    0.391710    4.666480
H       7.130396    0.423759    3.876768
H       6.039554   -0.421385    4.619046
C       7.589736   -1.388790    6.704860
H       8.071054   -1.918192    6.039502
H       8.093032   -1.446953    7.526622
C       6.241752   -2.053510    6.922800
H       6.404389   -2.908150    7.365090
H       5.857870   -2.250552    6.060014
