24
2107582
Pd      1.663586    6.408791    0.524923
S       1.065365    6.725886    2.694649
Cl      1.947367    8.707002    0.399627
S       1.518805    4.168730    0.807679
Cl      2.236772    6.040515   -1.697530
O       3.776813    5.235046    2.927213
C       0.485992    4.047618    2.293935
H      -0.441050    4.173037    2.037543
H       0.571148    3.153215    2.658138
C       3.175428    3.559877    1.315479
H       3.051297    2.941649    2.052039
H       3.546200    3.055666    0.575296
C       4.201226    4.582233    1.738571
H       5.053013    4.143899    1.893493
H       4.321345    5.235932    1.031908
C       0.822491    5.034502    3.368424
H       1.633337    4.750725    3.819601
H       0.106938    5.050971    4.022540
C       3.853009    6.656082    2.936273
H       3.956923    6.985466    2.030295
H       4.622932    6.939859    3.452680
C       2.595957    7.223636    3.543278
H       2.655146    8.191517    3.534218
H       2.543522    6.941126    4.469187
