24
2107546
Pd     -0.110110   10.410334    1.379635
S      -0.216090    9.089119   -0.427757
Cl     -0.077105   11.691816    3.320526
S      -2.348371   10.676893    1.347201
Cl      2.182955   10.037401    1.400788
C      -2.951039    9.650845   -0.011282
H      -3.326412    8.837999    0.361009
H      -3.669381   10.124249   -0.458782
C      -1.908547    9.268263   -1.047301
H      -1.909320    9.941472   -1.744874
H      -2.175929    8.428170   -1.453435
C      -2.870262    9.743937    2.803457
H      -2.375373   10.069756    3.571540
H      -3.809234    9.924443    2.964218
C      -1.274148    7.020448    1.193020
H      -2.121128    6.927357    0.729538
H      -1.058064    6.167868    1.602915
O      -1.383137    8.009259    2.186734
C      -2.677683    8.247664    2.706624
H      -2.763875    7.842376    3.583762
H      -3.348395    7.861676    2.122805
C      -0.193825    7.401895    0.208708
H      -0.249544    6.795666   -0.546213
H       0.665009    7.253176    0.634585
