24
2107575
Pd     -0.633613    2.337251    9.851688
S       0.499719    2.999290    8.048158
S       0.922564    3.234267   11.191618
Cl     -2.226106    1.640734    8.339410
Cl     -1.758416    1.676647   11.732689
O      -0.615201    5.602506    9.359036
C       2.299939    3.469244   10.056521
H       2.932978    4.089009   10.451230
H       2.753826    2.620659    9.930262
C      -1.396749    5.009420    8.318326
H      -1.916886    5.690751    7.863552
H      -2.009338    4.357847    8.693423
C      -0.941591    5.292624   10.708650
H      -1.569531    4.553832   10.731940
H      -1.359902    6.060147   11.129102
C       0.304250    4.922202   11.453941
H       0.136794    5.040203   12.402715
H       1.004738    5.544018   11.203876
C       1.862850    3.999738    8.710585
H       2.611537    3.978190    8.094004
H       1.574710    4.921176    8.802520
C      -0.469224    4.340403    7.347487
H       0.137118    5.007368    6.989552
H      -0.992206    3.992555    6.608326
