24
2107611
Pd      1.700540    6.432720    0.514699
S       1.082059    6.761599    2.677092
Cl      1.922489    8.730284    0.337103
S       1.611699    4.194964    0.840382
Cl      2.315804    6.027455   -1.687799
O       3.803159    5.269209    2.943485
C       0.620337    4.047548    2.329574
H      -0.313726    4.027145    2.069210
H       0.823565    3.195701    2.744330
C       3.251241    3.622900    1.316438
H       3.142022    2.977639    2.032668
H       3.628489    3.147243    0.560011
C       4.266923    4.643076    1.768649
H       5.116093    4.206951    1.941312
H       4.400253    5.304915    1.073431
C       0.795572    5.126384    3.361895
H       1.545548    4.891744    3.931956
H       0.001603    5.155714    3.918252
C       3.871928    6.703832    2.938004
H       3.951928    7.032838    2.029927
H       4.641987    7.004783    3.445029
C       2.606022    7.207543    3.565619
H       2.656498    8.174160    3.626827
H       2.549983    6.859408    4.469128
