24
2107619
Pd     -0.541786    2.501780   10.524576
S       0.550902    3.253111    8.685080
S       1.039608    3.441896   11.837602
Cl     -2.135110    1.596304    9.094840
Cl     -1.643953    1.815110   12.429060
O      -0.351575    5.862158   10.127144
C       2.410428    3.683334   10.684835
H       3.024549    4.329938   11.068064
H       2.888532    2.845058   10.595058
C      -1.221481    5.372586    9.118423
H      -1.698227    6.113872    8.712415
H      -1.873440    4.774478    9.513711
C      -0.726201    5.626609   11.471392
H      -1.440775    4.971923   11.502211
H      -1.050645    6.448720   11.870699
C       0.464271    5.118563   12.247228
H       0.242174    5.140502   13.190559
H       1.201370    5.733992   12.107872
C       2.022782    4.149812    9.332816
H       2.767285    4.020491    8.724475
H       1.827730    5.100089    9.366315
C      -0.438216    4.639384    8.062535
H       0.153456    5.268668    7.621688
H      -1.057316    4.303381    7.395235
