24
2107544
Pd     -0.106999   10.717456    1.447831
S      -0.225971    9.393336   -0.366074
Cl     -0.049326   12.026778    3.381824
S      -2.344031   10.983830    1.422652
Cl      2.192440   10.383666    1.435241
C      -2.957931    9.984339    0.036801
H      -3.330274    9.159848    0.388348
H      -3.676448   10.467055   -0.400938
C      -1.905263    9.639039   -0.997502
H      -1.879283   10.349606   -1.656048
H      -2.178371    8.828641   -1.453642
C      -2.903887   10.020749    2.873388
H      -2.390659   10.293230    3.649116
H      -3.836064   10.229808    3.048677
C      -1.328970    7.304153    1.210561
H      -2.152606    7.281838    0.704062
H      -1.176059    6.422111    1.589225
O      -1.424655    8.253141    2.245833
C      -2.763981    8.516227    2.692288
H      -2.932096    8.060525    3.530965
H      -3.402951    8.197940    2.035680
C      -0.168823    7.695258    0.319588
H      -0.132694    7.070430   -0.426118
H       0.655237    7.595427    0.818339
