24
2107614
Pd     -0.550698    2.517353   10.492280
S       0.556858    3.245142    8.652293
S       1.028772    3.454722   11.809459
Cl     -2.141054    1.622173    9.046424
Cl     -1.673321    1.852564   12.400788
O      -0.380824    5.862339   10.050476
C       2.408410    3.669648   10.652695
H       3.041159    4.296228   11.037796
H       2.862863    2.819044   10.550444
C      -1.258059    5.350385    9.043237
H      -1.742233    6.081585    8.628922
H      -1.903607    4.748822    9.446930
C      -0.742119    5.638089   11.406032
H      -1.450644    4.977393   11.450783
H      -1.072797    6.462537   11.797374
C       0.461378    5.151380   12.184733
H       0.250613    5.199141   13.130621
H       1.197275    5.760903   12.020468
C       2.007811    4.168865    9.288905
H       2.751647    4.064246    8.675399
H       1.792076    5.112716    9.340695
C      -0.454931    4.611224    7.996957
H       0.129174    5.243491    7.549310
H      -1.065398    4.255290    7.332857
