24
2107577
Pd     -0.100358   10.986174    1.491300
S      -0.214909    9.660823   -0.333010
Cl     -0.053686   12.314909    3.408785
S      -2.352174   11.251099    1.453891
Cl      2.216719   10.695264    1.488125
C      -2.965718   10.260168    0.037310
H      -3.341666    9.431914    0.373098
H      -3.678417   10.750497   -0.402866
C      -1.885632    9.932637   -0.986328
H      -1.846372   10.658643   -1.628334
H      -2.156987    9.135807   -1.467585
C      -2.926894   10.287603    2.893890
H      -2.454951   10.603048    3.680373
H      -3.869875   10.471310    3.027451
C      -1.364243    7.562210    1.229437
H      -2.205799    7.559793    0.746196
H      -1.209958    6.667846    1.571774
O      -1.433788    8.483526    2.307948
C      -2.741210    8.779996    2.796250
H      -2.863318    8.378015    3.671442
H      -3.407210    8.407022    2.196912
C      -0.234348    7.952588    0.288754
H      -0.262604    7.356748   -0.476295
H       0.604701    7.791844    0.747188
