24
2107620
Pd     -0.503203    2.483559   10.516498
S       0.577716    3.244266    8.680071
S       1.080788    3.419466   11.824259
Cl     -2.100898    1.576330    9.098302
Cl     -1.587812    1.784968   12.421712
O      -0.298318    5.843464   10.147439
C       2.448453    3.687431   10.680808
H       3.039184    4.357346   11.059674
H       2.952143    2.861939   10.605572
C      -1.177262    5.365120    9.138472
H      -1.659809    6.109340    8.746171
H      -1.824924    4.759062    9.530774
C      -0.685435    5.601970   11.482876
H      -1.403431    4.950632   11.504372
H      -1.007965    6.422818   11.885925
C       0.494354    5.085311   12.255387
H       0.263965    5.089956   13.198523
H       1.229811    5.705301   12.135816
C       2.052661    4.122818    9.322531
H       2.795144    3.975367    8.716614
H       1.869296    5.074862    9.338653
C      -0.397292    4.648764    8.070391
H       0.201900    5.281525    7.644503
H      -1.015158    4.328320    7.394612
