24
2107621
Pd     -0.478429    2.472669   10.545397
S       0.599664    3.243882    8.702945
S       1.107676    3.404546   11.858269
Cl     -2.075554    1.562626    9.126339
Cl     -1.553506    1.756100   12.448778
O      -0.267543    5.832262   10.202521
C       2.462511    3.692014   10.721293
H       3.036132    4.377407   11.099565
H       2.985861    2.878183   10.659149
C      -1.141715    5.378058    9.190645
H      -1.612002    6.133508    8.805619
H      -1.799167    4.776733    9.575671
C      -0.661390    5.587062   11.529173
H      -1.384676    4.941368   11.544034
H      -0.980076    6.409066   11.934464
C       0.512425    5.054627   12.314086
H       0.267794    5.039448   13.251659
H       1.249083    5.679304   12.216816
C       2.088009    4.106520    9.350059
H       2.834449    3.933712    8.755633
H       1.922905    5.062800    9.346006
C      -0.373137    4.662307    8.115273
H       0.226545    5.293989    7.689718
H      -0.999038    4.351720    7.442490
