24
2107599
Pd      1.646047    6.404997    0.517001
S       1.048270    6.713309    2.690046
Cl      1.929913    8.705575    0.403854
S       1.507806    4.160820    0.791492
Cl      2.221383    6.048756   -1.709555
O       3.759635    5.220437    2.915170
C       0.470176    4.021460    2.279166
H      -0.457130    4.152979    2.026025
H       0.554810    3.123587    2.635905
C       3.160780    3.543437    1.307142
H       3.034596    2.931366    2.048547
H       3.532654    3.032535    0.572044
C       4.174816    4.570301    1.720635
H       5.031709    4.140333    1.864772
H       4.280939    5.225369    1.013463
C       0.822722    5.012914    3.364698
H       1.641745    4.730906    3.801613
H       0.117885    5.023031    4.030430
C       3.837444    6.645526    2.918774
H       3.931048    6.971795    2.009810
H       4.612553    6.931327    3.425956
C       2.583322    7.207012    3.537662
H       2.642804    8.175704    3.535860
H       2.536384    6.917417    4.461940
