24
2107579
Pd     -0.091602   11.053202    1.520190
S      -0.213582    9.727607   -0.302676
Cl     -0.038729   12.386470    3.430493
S      -2.339669   11.323095    1.483933
Cl      2.219491   10.752860    1.513078
C      -2.954258   10.360687    0.051080
H      -3.364268    9.544917    0.376592
H      -3.641555   10.876115   -0.398627
C      -1.885385    9.999205   -0.951496
H      -1.841088   10.706823   -1.612535
H      -2.164279    9.191718   -1.411218
C      -2.916417   10.344001    2.906569
H      -2.447374   10.653234    3.697813
H      -3.860169   10.529005    3.039778
C      -1.346403    7.624607    1.256976
H      -2.187619    7.612062    0.773215
H      -1.182053    6.731499    1.599514
O      -1.432258    8.539882    2.335972
C      -2.739439    8.842415    2.808415
H      -2.872979    8.440255    3.680786
H      -3.400020    8.474357    2.200459
C      -0.227783    8.023479    0.320504
H      -0.253373    7.426937   -0.444699
H       0.613136    7.866610    0.777222
