24
2107574
Pd     -0.646097    2.395461    9.951248
S       0.483335    3.051950    8.141141
S       0.909838    3.312827   11.288253
Cl     -2.240398    1.665843    8.449147
Cl     -1.774929    1.727657   11.832375
O      -0.598012    5.699488    9.449638
C       2.291842    3.534940   10.147454
H       2.918357    4.167751   10.531687
H       2.753651    2.688398   10.044579
C      -1.393468    5.102299    8.428324
H      -1.908394    5.787495    7.973442
H      -2.013599    4.470536    8.824951
C      -0.940898    5.431277   10.814283
H      -1.607506    4.727222   10.853946
H      -1.314073    6.227529   11.222065
C       0.298911    5.004863   11.562917
H       0.124977    5.108585   12.511103
H       1.013027    5.620911   11.333617
C       1.868126    4.030502    8.787767
H       2.617468    3.972878    8.175474
H       1.602997    4.960860    8.852219
C      -0.505381    4.389863    7.436756
H       0.093555    5.039437    7.035172
H      -1.059660    4.026311    6.729025
