24
2107556
Pd      1.620020    6.333008    0.510633
S       1.028020    6.645402    2.674179
Cl      1.933443    8.622735    0.413518
S       1.470074    4.098820    0.781377
Cl      2.182446    5.977180   -1.714000
O       3.731773    5.139593    2.889366
C       0.448203    3.961406    2.259769
H      -0.480744    4.078725    2.006504
H       0.543940    3.066533    2.620940
C       3.118320    3.479647    1.257409
H       2.999666    2.843126    1.979750
H       3.482850    2.992896    0.502072
C       4.147998    4.491840    1.695273
H       4.996892    4.047523    1.845984
H       4.273793    5.152074    0.995226
C       0.781895    4.959870    3.346848
H       1.590181    4.676556    3.803440
H       0.062994    4.976095    3.996956
C       3.806483    6.557412    2.895608
H       3.906784    6.883161    1.987776
H       4.580085    6.841975    3.406598
C       2.556160    7.136521    3.506477
H       2.621856    8.103783    3.491317
H       2.506999    6.859448    4.434819
