24
2107616
Pd     -0.546582    2.514433   10.471589
S       0.564662    3.235881    8.631951
S       1.033042    3.450460   11.790512
Cl     -2.137584    1.622522    9.021925
Cl     -1.675181    1.853389   12.381228
O      -0.379362    5.856303   10.020082
C       2.414903    3.663795   10.636471
H       3.048153    4.289321   11.023004
H       2.868466    2.812039   10.534710
C      -1.254488    5.337897    9.013985
H      -1.740811    6.066357    8.596090
H      -1.898578    4.736125    9.417853
C      -0.743403    5.630865   11.379763
H      -1.446838    4.964617   11.425284
H      -1.079046    6.453211   11.769339
C       0.466837    5.152388   12.155872
H       0.262912    5.208946   13.103215
H       1.200792    5.762078   11.981065
C       2.013585    4.164894    9.266336
H       2.758385    4.061960    8.652992
H       1.795725    5.108273    9.318606
C      -0.444551    4.596994    7.969910
H       0.140847    5.229306    7.524226
H      -1.050572    4.238419    7.303236
