24
2107573
Pd     -0.668410    2.450668   10.082766
S       0.462158    3.125371    8.264342
S       0.890073    3.383145   11.415112
Cl     -2.260864    1.676063    8.596611
Cl     -1.801227    1.779814   11.969229
O      -0.584609    5.754448    9.575685
C       2.270278    3.584230   10.267388
H       2.917048    4.192832   10.658515
H       2.706713    2.726410   10.147912
C      -1.394366    5.186490    8.543161
H      -1.886699    5.888148    8.089152
H      -2.033080    4.567192    8.929257
C      -0.937499    5.503092   10.926392
H      -1.622509    4.816409   10.960349
H      -1.298734    6.310640   11.323807
C       0.265116    5.052790   11.704873
H       0.053631    5.130871   12.648104
H       0.986590    5.675298   11.521257
C       1.859231    4.113682    8.917938
H       2.609373    4.065550    8.305467
H       1.593485    5.043164    8.998427
C      -0.510975    4.465580    7.563458
H       0.094155    5.108410    7.162270
H      -1.066963    4.105125    6.855406
