24
2107600
Pd      1.644924    6.404946    0.516375
S       1.049081    6.712990    2.689167
Cl      1.928547    8.705668    0.404758
S       1.506803    4.160496    0.791949
Cl      2.219046    6.048975   -1.711731
O       3.759037    5.218166    2.912491
C       0.465187    4.026327    2.280085
H      -0.461693    4.160369    2.025141
H       0.546123    3.128497    2.638629
C       3.155040    3.544534    1.308955
H       3.027256    2.933756    2.052167
H       3.526388    3.029862    0.575652
C       4.178101    4.571348    1.720649
H       5.034522    4.138872    1.867490
H       4.286696    5.226385    1.013471
C       0.818893    5.017734    3.365626
H       1.635753    4.734475    3.804346
H       0.111893    5.031644    4.030463
C       3.835765    6.643946    2.918797
H       3.928990    6.972729    2.009826
H       4.611658    6.929734    3.425083
C       2.579529    7.211729    3.541294
H       2.639021    8.179109    3.538591
H       2.531060    6.922147    4.466481
