24
2107594
Pd      1.650420    6.407353    0.520952
S       1.052750    6.717629    2.692640
Cl      1.937321    8.706458    0.406007
S       1.508304    4.163293    0.797037
Cl      2.225196    6.047853   -1.703696
O       3.759125    5.222812    2.917839
C       0.471122    4.035361    2.279956
H      -0.454569    4.170758    2.025525
H       0.549461    3.138192    2.639047
C       3.162242    3.549447    1.311854
H       3.036344    2.938259    2.053494
H       3.533189    3.036960    0.576530
C       4.181509    4.579483    1.723275
H       5.039435    4.150512    1.868535
H       4.287262    5.236225    1.017725
C       0.823959    5.021107    3.361740
H       1.641378    4.737658    3.799325
H       0.117806    5.032496    4.026689
C       3.841634    6.647146    2.922350
H       3.938502    6.973619    2.013796
H       4.615976    6.930596    3.432114
C       2.583674    7.215311    3.540383
H       2.643419    8.184607    3.534067
H       2.535315    6.930596    4.466079
