24
2107608
Pd      1.688318    6.431123    0.516030
S       1.074971    6.757412    2.679783
Cl      1.914528    8.727762    0.345570
S       1.596780    4.193729    0.835438
Cl      2.298430    6.032084   -1.690475
O       3.806265    5.267005    2.937023
C       0.591810    4.043898    2.323548
H      -0.342238    4.056639    2.063756
H       0.770062    3.180079    2.726454
C       3.247038    3.610714    1.320840
H       3.140385    2.982598    2.051905
H       3.623587    3.120197    0.572455
C       4.248657    4.651630    1.745624
H       5.113478    4.236283    1.890560
H       4.345692    5.319242    1.047374
C       0.808818    5.103924    3.361807
H       1.578127    4.860577    3.900534
H       0.035541    5.129406    3.947935
C       3.860138    6.690142    2.942492
H       3.948895    7.020126    2.035497
H       4.629463    6.988274    3.452050
C       2.597393    7.226525    3.561437
H       2.653238    8.194818    3.593341
H       2.538741    6.906733    4.475724
