24
2107547
Pd     -0.109151   10.332131    1.363247
S      -0.211377    9.012619   -0.443310
Cl     -0.078799   11.603361    3.307556
S      -2.341000   10.599658    1.330862
Cl      2.177559    9.949018    1.387792
C      -2.946711    9.565455   -0.020532
H      -3.326215    8.756234    0.357447
H      -3.661585   10.038156   -0.474108
C      -1.902485    9.171537   -1.048077
H      -1.909985    9.833319   -1.757372
H      -2.165738    8.324050   -1.440056
C      -2.853067    9.671250    2.796116
H      -2.344644    9.992011    3.557675
H      -3.788539    9.858079    2.968774
C      -1.270719    6.955466    1.169404
H      -2.117940    6.858675    0.707429
H      -1.052265    6.105729    1.583782
O      -1.379511    7.954893    2.160551
C      -2.671709    8.184491    2.689722
H      -2.754913    7.772565    3.563275
H      -3.346701    7.805204    2.104554
C      -0.193594    7.331377    0.183857
H      -0.255594    6.728119   -0.573969
H       0.666427    7.177186    0.604767
