24
2107613
Pd     -0.551318    2.516782   10.502665
S       0.553202    3.248229    8.662177
S       1.027474    3.453532   11.818991
Cl     -2.142281    1.619723    9.059922
Cl     -1.668595    1.847723   12.411018
O      -0.378445    5.862188   10.067127
C       2.406538    3.679479   10.662881
H       3.032754    4.311355   11.047452
H       2.869185    2.832035   10.563078
C      -1.253746    5.354976    9.059390
H      -1.733628    6.087222    8.642882
H      -1.902769    4.756177    9.459930
C      -0.739877    5.640119   11.420314
H      -1.451574    4.982010   11.463961
H      -1.067345    6.465891   11.809942
C       0.455099    5.148533   12.200236
H       0.239374    5.190734   13.144632
H       1.191961    5.759879   12.044145
C       2.007344    4.169924    9.297585
H       2.751487    4.059289    8.685464
H       1.794673    5.115456    9.344159
C      -0.452526    4.612465    8.015724
H       0.132396    5.243200    7.569009
H      -1.064025    4.258888    7.350774
