24
2107584
Pd      1.660825    6.409249    0.524411
S       1.061945    6.725164    2.694383
Cl      1.946050    8.707169    0.401478
S       1.515934    4.168710    0.806305
Cl      2.234623    6.040892   -1.697614
O       3.775061    5.233751    2.929386
C       0.482478    4.039506    2.291185
H      -0.445376    4.162376    2.035905
H       0.570942    3.145216    2.655095
C       3.169261    3.556894    1.318043
H       3.043500    2.941277    2.056726
H       3.538454    3.046413    0.580265
C       4.196781    4.576587    1.734457
H       5.048688    4.138309    1.886539
H       4.314699    5.228938    1.027458
C       0.823993    5.036399    3.369337
H       1.636506    4.755192    3.819246
H       0.110191    5.054133    4.026548
C       3.846627    6.656508    2.935723
H       3.946753    6.984584    2.027758
H       4.618305    6.944049    3.448094
C       2.595709    7.220190    3.543145
H       2.655710    8.189215    3.535903
H       2.544272    6.936449    4.469215
