24
2107615
Pd     -0.550950    2.516706   10.482068
S       0.559079    3.241030    8.641741
S       1.028258    3.453326   11.800014
Cl     -2.141039    1.623293    9.033957
Cl     -1.677017    1.854302   12.390923
O      -0.382391    5.860709   10.035639
C       2.411018    3.666416   10.642984
H       3.044832    4.291283   11.028175
H       2.864142    2.814737   10.540390
C      -1.258819    5.344825    9.028390
H      -1.743319    6.075159    8.611785
H      -1.904185    4.743773    9.432270
C      -0.744894    5.638546   11.392157
H      -1.451755    4.975121   11.437755
H      -1.076410    6.461874   11.782385
C       0.462336    5.153169   12.170094
H       0.255239    5.205335   13.115840
H       1.197706    5.762159   12.001093
C       2.007582    4.165402    9.280766
H       2.751936    4.064471    8.666130
H       1.789872    5.110074    9.334183
C      -0.452651    4.603150    7.983232
H       0.131363    5.234821    7.535477
H      -1.061255    4.244787    7.318095
