24
2107596
Pd      1.647732    6.408391    0.519564
S       1.051635    6.717788    2.691613
Cl      1.932404    8.708436    0.405839
S       1.507157    4.162885    0.794181
Cl      2.221862    6.050021   -1.707138
O       3.759040    5.224960    2.918432
C       0.471758    4.030395    2.279912
H      -0.455789    4.159468    2.026488
H       0.555583    3.133205    2.639756
C       3.159913    3.548266    1.311310
H       3.032415    2.934532    2.051741
H       3.532274    3.037032    0.575389
C       4.182459    4.573264    1.729775
H       5.036422    4.139222    1.881288
H       4.297419    5.227491    1.021812
C       0.819617    5.021226    3.363051
H       1.636011    4.737770    3.804964
H       0.110701    5.033881    4.025019
C       3.840493    6.649835    2.923843
H       3.940869    6.977581    2.015666
H       4.613942    6.933291    3.436102
C       2.580398    7.219278    3.538013
H       2.639305    8.187332    3.528092
H       2.531227    6.935822    4.464227
