24
2107541
Pd     -0.091467   11.053498    1.520795
S      -0.212283    9.728481   -0.299452
Cl     -0.036596   12.383265    3.430578
S      -2.339893   11.324153    1.485141
Cl      2.217819   10.749346    1.514486
C      -2.955049   10.365776    0.050076
H      -3.372888    9.552105    0.373564
H      -3.636038   10.887110   -0.403609
C      -1.879220   10.000355   -0.941421
H      -1.832416   10.706835   -1.605423
H      -2.158315    9.192774   -1.400113
C      -2.915556   10.340196    2.908390
H      -2.450011   10.654458    3.699584
H      -3.859143   10.521689    3.038586
C      -1.328604    7.633645    1.263908
H      -2.171828    7.606847    0.785185
H      -1.152400    6.745672    1.612434
O      -1.427612    8.541107    2.330517
C      -2.731213    8.840752    2.817252
H      -2.852306    8.442443    3.693575
H      -3.397152    8.465586    2.220351
C      -0.231967    8.024645    0.320484
H      -0.272745    7.430227   -0.444671
H       0.614547    7.861424    0.765155
