24
2107602
Pd      1.668606    6.425446    0.518948
S       1.066913    6.740969    2.688874
Cl      1.929152    8.724451    0.381782
S       1.547259    4.183624    0.812669
Cl      2.257483    6.051470   -1.696186
O       3.787855    5.249386    2.920897
C       0.516485    4.049817    2.295767
H      -0.413096    4.150204    2.036655
H       0.623295    3.160306    2.668127
C       3.200878    3.586000    1.313679
H       3.083599    2.962072    2.047527
H       3.575672    3.086603    0.570771
C       4.205937    4.603855    1.734056
H       5.061852    4.173077    1.882638
H       4.317412    5.260822    1.029199
C       0.825545    5.057505    3.366642
H       1.629753    4.785569    3.835942
H       0.098017    5.072754    4.007173
C       3.850392    6.670062    2.929957
H       3.948994    6.997910    2.022159
H       4.621057    6.961059    3.441838
C       2.593752    7.235537    3.539685
H       2.653090    8.203833    3.534249
H       2.540481    6.949622    4.464696
