24
2107555
Pd      1.663080    6.406159    0.524592
S       1.064507    6.724947    2.690231
Cl      1.947076    8.702776    0.395119
S       1.518847    4.169070    0.810609
Cl      2.239203    6.036330   -1.696730
O       3.770120    5.234610    2.921743
C       0.486745    4.045329    2.285243
H      -0.439813    4.163117    2.023581
H       0.577202    3.151152    2.651027
C       3.175545    3.556444    1.306500
H       3.057678    2.932040    2.038973
H       3.547867    3.059961    0.561351
C       4.189621    4.587408    1.732946
H       5.046108    4.156784    1.882338
H       4.300770    5.243476    1.027635
C       0.809837    5.045895    3.373540
H       1.613153    4.763457    3.839824
H       0.083263    5.067427    4.015473
C       3.845892    6.639203    2.940756
H       3.955894    6.972303    2.036257
H       4.614300    6.916575    3.461364
C       2.584036    7.215478    3.545567
H       2.648863    8.184381    3.535608
H       2.525422    6.934306    4.471797
