24
2107570
Pd     -0.561481    2.519279   10.506732
S       0.548921    3.255824    8.660266
S       1.021337    3.452767   11.822651
Cl     -2.154622    1.618805    9.062001
Cl     -1.680555    1.851038   12.418002
O      -0.397780    5.858206   10.065342
C       2.394020    3.654264   10.662821
H       3.031837    4.280384   11.043399
H       2.843664    2.803879   10.560358
C      -1.267455    5.350480    9.065993
H      -1.750807    6.087025    8.652148
H      -1.914389    4.753958    9.467862
C      -0.756992    5.612312   11.433291
H      -1.457508    4.944071   11.474543
H      -1.093586    6.430822   11.833829
C       0.457838    5.134184   12.197107
H       0.258777    5.180858   13.145890
H       1.189613    5.744366   12.022787
C       1.989153    4.155160    9.290880
H       2.731521    4.045874    8.677432
H       1.779725    5.102309    9.342777
C      -0.469250    4.610520    8.017409
H       0.109829    5.248024    7.564974
H      -1.082201    4.256478    7.356056
