24
2107557
Pd      1.591707    6.285917    0.497572
S       0.998340    6.593217    2.655128
Cl      1.922507    8.572616    0.422631
S       1.438606    4.052496    0.760260
Cl      2.153574    5.936590   -1.730070
O       3.700677    5.082925    2.858146
C       0.427508    3.908611    2.244677
H      -0.503459    4.026043    1.999290
H       0.525473    3.011188    2.601284
C       3.079534    3.433941    1.228703
H       2.960581    2.796103    1.948977
H       3.439101    2.946910    0.471356
C       4.120067    4.435199    1.668282
H       4.963781    3.982779    1.823635
H       4.255080    5.094051    0.968310
C       0.771144    4.902452    3.330385
H       1.586407    4.621853    3.774377
H       0.060822    4.913577    3.990636
C       3.775914    6.501991    2.870504
H       3.877046    6.830799    1.963982
H       4.551307    6.782590    3.382463
C       2.529578    7.081731    3.483090
H       2.596371    8.049613    3.468084
H       2.482317    6.806077    4.412561
