24
2107610
Pd      1.695536    6.430859    0.515868
S       1.079657    6.759617    2.676851
Cl      1.917514    8.727193    0.336912
S       1.607892    4.194437    0.842827
Cl      2.310282    6.025233   -1.686841
O       3.803272    5.267267    2.938163
C       0.597840    4.052430    2.329165
H      -0.335470    4.054980    2.064383
H       0.780627    3.193249    2.740033
C       3.261567    3.613916    1.320256
H       3.156666    2.972717    2.039731
H       3.640670    3.138435    0.564259
C       4.259532    4.650288    1.763993
H       5.118086    4.230895    1.927427
H       4.374166    5.315708    1.067344
C       0.798668    5.121945    3.363639
H       1.558141    4.882293    3.916942
H       0.015465    5.153814    3.935202
C       3.864098    6.697537    2.939989
H       3.944593    7.028971    2.032427
H       4.635529    6.998378    3.446726
C       2.597652    7.209986    3.569986
H       2.649080    8.176246    3.627508
H       2.540076    6.864529    4.474809
