24
2107586
Pd      1.658771    6.408643    0.523736
S       1.061932    6.722578    2.694122
Cl      1.944248    8.708009    0.401350
S       1.513642    4.167530    0.803786
Cl      2.231251    6.043925   -1.699837
O       3.770794    5.231289    2.922612
C       0.478386    4.039752    2.290329
H      -0.448572    4.168923    2.035245
H       0.562240    3.144422    2.651246
C       3.165336    3.555995    1.316125
H       3.039784    2.939268    2.053336
H       3.536952    3.048177    0.578010
C       4.191648    4.577964    1.737647
H       5.043585    4.141063    1.891421
H       4.311306    5.231416    1.030286
C       0.824183    5.030061    3.370366
H       1.637007    4.746392    3.816311
H       0.111944    5.045258    4.029785
C       3.849708    6.651028    2.929848
H       3.949677    6.980287    2.022581
H       4.623456    6.934697    3.441826
C       2.591297    7.218366    3.545849
H       2.650158    8.185880    3.542231
H       2.539971    6.929631    4.471207
