24
2107583
Pd      1.662189    6.410285    0.524647
S       1.064049    6.727284    2.695233
Cl      1.946994    8.708714    0.399485
S       1.518176    4.169251    0.808479
Cl      2.234377    6.041341   -1.698377
O       3.775971    5.232627    2.927081
C       0.488810    4.042933    2.292216
H      -0.439626    4.164563    2.036821
H       0.577544    3.148445    2.656290
C       3.170782    3.557680    1.314107
H       3.046475    2.938127    2.050406
H       3.541654    3.053422    0.573280
C       4.196869    4.580133    1.737954
H       5.049221    4.141758    1.891010
H       4.316223    5.233894    1.031542
C       0.823769    5.034979    3.369041
H       1.634993    4.753709    3.820963
H       0.108339    5.050182    4.022925
C       3.849514    6.654179    2.931609
H       3.948179    6.981060    2.023236
H       4.621939    6.941783    3.442399
C       2.594531    7.223053    3.542927
H       2.654555    8.191026    3.535682
H       2.542723    6.939249    4.469413
