24
2107617
Pd     -0.547028    2.511868   10.461334
S       0.566483    3.231705    8.622663
S       1.032410    3.447453   11.781372
Cl     -2.137169    1.621215    9.009424
Cl     -1.678805    1.851301   12.370698
O      -0.380685    5.853197   10.007183
C       2.416174    3.660153   10.627958
H       3.049675    4.284479   11.014852
H       2.868382    2.808902   10.525949
C      -1.256470    5.332173    9.002950
H      -1.745380    6.058107    8.584872
H      -1.897712    4.728168    9.408079
C      -0.743841    5.629094   11.366994
H      -1.447584    4.962996   11.412581
H      -1.079709    6.452121   11.756134
C       0.465485    5.150971   12.144746
H       0.261086    5.207985   13.090707
H       1.200550    5.760056   11.968873
C       2.016279    4.163678    9.260218
H       2.761457    4.062070    8.646976
H       1.797299    5.106377    9.312941
C      -0.442771    4.593029    7.960001
H       0.142340    5.226048    7.515892
H      -1.047414    4.234804    7.291261
