24
2107593
Pd      1.651489    6.407480    0.521101
S       1.053942    6.717286    2.692323
Cl      1.936731    8.706478    0.405581
S       1.507770    4.164292    0.797715
Cl      2.226814    6.047810   -1.704000
O       3.762880    5.225709    2.918668
C       0.470694    4.037104    2.282409
H      -0.455304    4.171253    2.026101
H       0.549203    3.139830    2.639797
C       3.155577    3.552399    1.305007
H       3.029921    2.936076    2.043248
H       3.524786    3.043648    0.566767
C       4.186057    4.574963    1.725570
H       5.038474    4.135817    1.877189
H       4.303808    5.229253    1.019819
C       0.819167    5.020437    3.365403
H       1.634018    4.734423    3.806723
H       0.109350    5.033092    4.026029
C       3.838952    6.646669    2.922278
H       3.934725    6.973181    2.014368
H       4.613707    6.932683    3.431285
C       2.579635    7.217432    3.542292
H       2.638549    8.185577    3.534170
H       2.529564    6.932683    4.468252
