24
2107545
Pd     -0.112947   10.554533    1.409093
S      -0.224777    9.231468   -0.403632
Cl     -0.071886   11.851300    3.344241
S      -2.355625   10.819238    1.374632
Cl      2.186398   10.200900    1.423182
C      -2.967497    9.808514    0.000952
H      -3.358080    8.997673    0.363649
H      -3.673695   10.296402   -0.451230
C      -1.913678    9.419818   -1.027166
H      -1.906634   10.093403   -1.724954
H      -2.182201    8.582449   -1.435558
C      -2.883961    9.873104    2.835893
H      -2.387156   10.191442    3.605078
H      -3.822490   10.056495    2.997727
C      -1.300656    7.151080    1.203279
H      -2.150037    7.076109    0.741578
H      -1.090818    6.287183    1.592632
O      -1.399899    8.119936    2.223782
C      -2.698944    8.372531    2.731177
H      -2.799932    7.964227    3.605078
H      -3.367497    7.995369    2.138105
C      -0.219220    7.539776    0.217999
H      -0.281018    6.942315   -0.542618
H       0.639439    7.380607    0.639718
