24
2107543
Pd     -0.102756   10.912719    1.489948
S      -0.224245    9.586602   -0.327656
Cl     -0.053458   12.241475    3.399927
S      -2.349178   11.177510    1.456688
Cl      2.204921   10.601736    1.482348
C      -2.959764   10.202929    0.052307
H      -3.358362    9.385879    0.389832
H      -3.657424   10.706837   -0.395753
C      -1.891870    9.839396   -0.965204
H      -1.857397   10.543667   -1.631373
H      -2.169967    9.027145   -1.416225
C      -2.920462   10.206528    2.883769
H      -2.452684   10.523270    3.672316
H      -3.864880   10.387695    3.015029
C      -1.340146    7.485427    1.235619
H      -2.184999    7.456633    0.760912
H      -1.160654    6.598790    1.585974
O      -1.426312    8.414177    2.309384
C      -2.734735    8.705604    2.792973
H      -2.856109    8.306077    3.668368
H      -3.397090    8.328873    2.192928
C      -0.235048    7.889753    0.285219
H      -0.272058    7.297062   -0.482602
H       0.612220    7.728983    0.729331
