24
2107598
Pd      1.646787    6.406567    0.517727
S       1.050212    6.714979    2.688921
Cl      1.930746    8.707133    0.404919
S       1.506403    4.162295    0.792810
Cl      2.221360    6.049705   -1.708699
O       3.760262    5.220358    2.916609
C       0.463965    4.031619    2.279586
H      -0.461521    4.166976    2.024597
H       0.542108    3.133455    2.637292
C       3.154800    3.549646    1.305581
H       3.028682    2.936111    2.047123
H       3.525703    3.037313    0.570347
C       4.178218    4.574312    1.720052
H       5.034319    4.142940    1.863314
H       4.285126    5.232123    1.014551
C       0.819445    5.019599    3.365318
H       1.637624    4.734970    3.803215
H       0.113722    5.033515    4.030273
C       3.836419    6.646415    2.915708
H       3.929007    6.968995    2.006577
H       4.611694    6.933575    3.422083
C       2.578452    7.215674    3.536513
H       2.637247    8.183414    3.529304
H       2.530601    6.929780    4.462763
