24
2107607
Pd      1.684341    6.435054    0.516152
S       1.073901    6.756985    2.682207
Cl      1.914272    8.732923    0.351508
S       1.591193    4.194918    0.833876
Cl      2.294541    6.041498   -1.690881
O       3.802052    5.271208    2.931359
C       0.572993    4.056638    2.315764
H      -0.360008    4.093598    2.050767
H       0.727253    3.186175    2.713715
C       3.234903    3.609299    1.319521
H       3.125270    2.982260    2.051678
H       3.609089    3.116079    0.573705
C       4.240264    4.642894    1.742060
H       5.100423    4.221045    1.892316
H       4.344132    5.305619    1.040865
C       0.809732    5.102978    3.362093
H       1.585455    4.851907    3.886623
H       0.044861    5.128467    3.958564
C       3.857566    6.687144    2.941376
H       3.951235    7.021055    2.035286
H       4.624158    6.984096    3.455889
C       2.596231    7.218598    3.551507
H       2.652939    8.187195    3.582468
H       2.538259    6.899981    4.465792
