24
2107581
Pd      1.663994    6.408411    0.525497
S       1.065846    6.725380    2.694916
Cl      1.947945    8.705862    0.397612
S       1.518446    4.168730    0.808457
Cl      2.236490    6.038868   -1.695584
O       3.781802    5.236186    2.930202
C       0.487909    4.047618    2.302108
H      -0.440461    4.167969    2.048332
H       0.577718    3.153215    2.668270
C       3.168071    3.562410    1.315102
H       3.043111    2.942916    2.050145
H       3.537013    3.055666    0.574621
C       4.204433    4.580966    1.739270
H       5.053636    4.137565    1.895160
H       4.329119    5.234666    1.034136
C       0.823024    5.035769    3.369778
H       1.632198    4.754526    3.822949
H       0.106432    5.054771    4.023250
C       3.847893    6.658616    2.935640
H       3.945291    6.986733    2.027486
H       4.619196    6.948727    3.447723
C       2.593196    7.218568    3.546515
H       2.651211    8.186449    3.543796
H       2.540903    6.929724    4.470983
