24
2107591
Pd      1.652705    6.409353    0.522156
S       1.055797    6.720426    2.692672
Cl      1.939444    8.709169    0.404867
S       1.508441    4.165750    0.798718
Cl      2.226262    6.047257   -1.702807
O       3.763707    5.225577    2.920026
C       0.471947    4.038763    2.285277
H      -0.454588    4.174233    2.031558
H       0.550666    3.139854    2.642831
C       3.161542    3.556391    1.313741
H       3.036114    2.943613    2.055034
H       3.532228    3.043632    0.577865
C       4.181787    4.575577    1.725470
H       5.036638    4.141315    1.871742
H       4.291808    5.231401    1.018488
C       0.825739    5.023766    3.368775
H       1.643087    4.738900    3.806688
H       0.119609    5.036426    4.033320
C       3.838720    6.650666    2.927249
H       3.935875    6.979844    2.019820
H       4.612045    6.936798    3.438299
C       2.581346    7.212801    3.543940
H       2.639966    8.181344    3.543037
H       2.530924    6.922871    4.467622
