24
2107606
Pd      1.681334    6.437740    0.516173
S       1.072315    6.758352    2.684116
Cl      1.916677    8.737097    0.357882
S       1.582846    4.196642    0.828569
Cl      2.285193    6.048416   -1.692253
O       3.801725    5.276397    2.926556
C       0.578087    4.047490    2.312498
H      -0.356334    4.079360    2.053229
H       0.740677    3.175527    2.704585
C       3.240597    3.606409    1.318178
H       3.131955    2.976658    2.047770
H       3.620130    3.119436    0.570392
C       4.237309    4.649196    1.748474
H       5.099738    4.233611    1.900396
H       4.340308    5.310817    1.046173
C       0.810928    5.091551    3.369587
H       1.588108    4.840416    3.892674
H       0.047152    5.111948    3.965451
C       3.861901    6.696524    2.935653
H       3.950993    7.029247    2.028666
H       4.632895    6.991003    3.446003
C       2.590580    7.233215    3.561537
H       2.643467    8.200788    3.590648
H       2.535295    6.913240    4.474892
