24
2107612
Pd      1.697277    6.427967    0.515239
S       1.079044    6.757933    2.678401
Cl      1.922511    8.724862    0.342518
S       1.598163    4.188912    0.836110
Cl      2.310017    6.025765   -1.688843
O       3.807364    5.266716    2.947483
C       0.606121    4.052594    2.316336
H      -0.327352    4.046224    2.052369
H       0.795084    3.193918    2.726445
C       3.244426    3.627078    1.309789
H       3.139067    2.978612    2.024054
H       3.622198    3.154424    0.551683
C       4.256301    4.638634    1.761913
H       5.106575    4.201652    1.925409
H       4.385686    5.303662    1.068657
C       0.786383    5.118932    3.363985
H       1.534902    4.878146    3.931195
H      -0.007804    5.149508    3.920235
C       3.860048    6.696144    2.935609
H       3.942421    7.019740    2.024967
H       4.627701    7.005726    3.441623
C       2.586442    7.210840    3.556709
H       2.636153    8.177806    3.606031
H       2.527928    6.874504    4.464610
