17
2200100
Ni      0.000000    0.000000    0.000000
S       0.335801   -1.065596    1.851331
S       1.755593   -0.044113    2.885983
S       1.440877    1.544683    0.440892
C       3.216424    2.176104    2.430251
H       3.508842    1.878328    3.295120
H       2.859183    3.064510    2.502057
H       3.961211    2.178565    1.823885
C       2.158442    1.252629    1.916914
S      -0.335801    1.065596   -1.851331
S      -1.755593    0.044113   -2.885983
S      -1.440877   -1.544683   -0.440892
C      -3.216424   -2.176104   -2.430251
H      -3.508842   -1.878328   -3.295120
H      -2.859183   -3.064510   -2.502057
H      -3.961211   -2.178565   -1.823885
C      -2.158442   -1.252629   -1.916914
