29
2200224
W       6.868711    5.036851    4.063532
S       8.936780    5.705234    2.738898
S       9.339033    3.403014    0.731491
S       4.669182    3.812731    4.108024
S       3.009566    5.192831    1.826147
O       5.808474    5.442358    6.952066
O       9.037984    3.922605    6.016738
O       6.989465    8.117328    4.557304
N       7.572028    3.502619    2.554413
N       5.423080    5.648757    2.483457
C       6.162008    5.289356    5.863538
C       8.249681    4.317946    5.274927
C       6.932464    6.987782    4.408942
C       8.560598    4.182401    2.023856
C       8.292189    2.085553    0.965968
H       8.330475    1.312327    0.453150
C       7.411728    2.258065    1.951287
C       6.403909    1.281521    2.431852
H       6.556896    1.094633    3.360730
H       6.479602    0.468248    1.927098
H       5.524149    1.647083    2.318968
C       4.403643    4.845752    2.793082
C       3.896485    6.411714    1.014347
H       3.546355    6.930278    0.327365
C       5.150078    6.541098    1.473948
C       6.166126    7.534072    1.046600
H       6.951716    7.076092    0.736974
H       6.397022    8.096791    1.790024
H       5.809414    8.072146    0.337041
