29
2200886
Zn      7.068957   -0.582613    6.512659
Cl      5.097352   -1.363154    7.294206
Cl      8.657341   -2.042210    7.177202
O       5.795555    2.165353    6.705741
O       7.574858    1.061290    7.466523
N       6.149101    4.250064    8.292786
H       5.372179    3.887719    8.528000
H       6.086445    4.578354    7.468246
H       6.354058    4.906644    8.857988
C       6.794423    2.055560    7.418274
C       7.211472    3.213430    8.331558
H       7.279639    2.874242    9.249149
C       8.550004    3.796451    7.936950
H       8.773796    4.515693    8.532308
H       8.501735    4.128828    7.037452
H       9.224454    3.115351    7.990369
O       6.594355   -2.257983    4.201104
O       7.193166   -0.154610    4.573310
N       7.024781   -2.186331    1.605139
H       7.274131   -2.096426    0.755613
H       6.138905   -2.255803    1.649080
H       7.395845   -2.920557    1.946328
C       7.035142   -1.172854    3.826313
C       7.468537   -0.998493    2.381430
H       7.034633   -0.200243    2.014393
C       8.978583   -0.839115    2.257361
H       9.214331   -0.732864    1.332877
H       9.412559   -1.618294    2.610612
H       9.259889   -0.065386    2.750190
