17
2200105
Pt      3.747194    3.747194    0.000000
I       1.527270    3.426789    1.321799
S       4.247030    5.716886    1.023024
C       5.948968    5.338887    1.536804
H       6.396421    6.161014    1.794370
H       5.928303    4.755761    2.311953
C       4.659621    6.743242   -0.409651
H       3.847377    7.147567   -0.753071
H       5.250834    7.458448   -0.126330
S       5.716886    4.247030   -1.023024
C       5.338887    5.948968   -1.536804
H       6.161014    6.396421   -1.794370
H       4.755761    5.928303   -2.311953
C       6.743242    4.659621    0.409651
H       7.147567    3.847377    0.753071
H       7.458448    5.250834    0.126330
I       3.426789    1.527270   -1.321799
