29
2200635
Zn     13.001227    2.843180    5.964323
Cl     11.669969    2.523743    4.148766
Cl     12.077818    2.328224    7.961206
O      13.644505    4.679463    5.859684
O      14.525056    1.666549    5.540389
O      11.634491    5.493825    6.388447
O      15.644726    2.021254    7.416526
N      12.325593    8.034935    5.885629
H      12.106342    8.091407    6.756766
H      11.586952    7.788805    5.434064
N      17.633311    0.331371    6.797037
H      17.880660    1.133692    7.119674
H      17.330049   -0.160890    7.487357
C      12.796592    5.617316    6.029519
C      15.485503    1.490635    6.337990
C      13.351035    6.992876    5.721843
H      14.095920    7.178273    6.314274
H      13.682962    7.008859    4.810117
C      16.536630    0.522095    5.823712
H      16.119557   -0.334567    5.639393
H      16.902900    0.859859    4.991571
C      12.750614    9.375334    5.411780
H      12.036806   10.003979    5.548666
H      12.963479    9.331649    4.477452
H      13.524023    9.658757    5.903615
C      18.814995   -0.336698    6.211132
H      19.494177   -0.431527    6.882511
H      19.155012    0.191790    5.484998
H      18.563247   -1.204015    5.884515
