25
2200238
Zn     -2.036087  -11.100967   -1.816941
Cl     -3.585399  -10.443129   -3.297791
Cl     -0.693092  -12.736407   -2.549117
Cl     -2.904584  -11.545674    0.209979
C      -0.603283   -7.073900   -0.821167
H      -0.982660   -6.362621   -1.361112
H      -0.547773   -6.769066    0.097490
C      -1.471543   -8.332123   -0.912408
H      -1.738648   -8.599323   -0.019373
H      -2.275757   -8.127646   -1.414857
C       0.422536   -9.813641   -0.745550
H       0.929220  -10.507357   -1.196129
H       0.131978  -10.162380    0.111864
C      -0.289307   -8.994478   -2.897207
H      -1.052402   -8.724769   -3.432153
H       0.148703   -9.729592   -3.352161
C       0.672506   -7.836612   -2.787843
H       1.546249   -8.095030   -3.120309
H       0.354082   -7.086445   -3.314665
N      -0.764973   -9.456119   -1.564217
C       1.315616   -8.589288   -0.523697
H       1.328905   -8.354704    0.417458
H       2.223372   -8.786238   -0.802419
N       0.764149   -7.446475   -1.332365
H       1.317601   -6.730178   -1.249874
