27
2201547
Pd     -0.712755    0.000000    3.557297
Cl     -1.814857    1.111971    1.853210
N      -0.690694    1.701431    4.651522
C      -0.126915    2.829305    4.162749
H       0.261509    2.806219    3.296192
C      -0.093795    4.014638    4.874920
H       0.298785    4.796737    4.507096
C      -0.657040    4.021307    6.154836
C      -1.224003    2.869064    6.669221
H      -1.603288    2.865217    7.540759
C      -1.229156    1.717847    5.889461
H      -1.620436    0.923436    6.235231
C      -0.647197    5.233061    6.955939
N      -0.646515    6.178813    7.614039
Cl      0.389347   -1.111971    5.261385
N      -0.734817   -1.701431    2.463073
C      -1.298596   -2.829305    2.951845
H      -1.687019   -2.806219    3.818403
C      -1.331716   -4.014638    2.239674
H      -1.724296   -4.796737    2.607499
C      -0.768470   -4.021307    0.959759
C      -0.201508   -2.869064    0.445374
H       0.177778   -2.865217   -0.426164
C      -0.196354   -1.717847    1.225133
H       0.194925   -0.923436    0.879364
C      -0.778313   -5.233061    0.158655
N      -0.778996   -6.178813   -0.499445
