25
2201583
Ni     12.270939    0.835930    6.354968
S      15.164137    3.338349    4.034303
N      13.497733   -0.472348    5.858433
N      15.162358    0.885455    4.983990
N      13.340065    2.149263    5.596608
N      15.554432   -1.347535    5.181417
C      14.680842   -0.335699    5.371219
C      14.470781    2.056058    4.958570
H      13.339982   -1.200618    6.049930
H      15.990585    0.876767    4.711150
H      13.014354    2.962050    5.566952
H      15.289276   -2.069486    5.244967
H      16.321673   -1.303302    5.143287
S       9.377741    3.338349    8.675633
N      11.044144   -0.472348    6.851503
N       9.379519    0.885455    7.725946
N      11.201813    2.149263    7.113328
N       8.987446   -1.347535    7.528519
C       9.861036   -0.335699    7.338717
C      10.071097    2.056058    7.751366
H      11.201896   -1.200618    6.660006
H       8.551292    0.876767    7.998786
H      11.527523    2.962050    7.142984
H       9.252601   -2.069486    7.464969
H       8.220204   -1.303302    7.566649
