30
2202716
Fe      2.287254    2.481442    2.215726
Cl      1.595056    0.140523    4.684235
Cl     -0.490373    0.433559    2.313568
C       2.107791    0.604310    3.111413
C       3.468744    0.911211    2.890921
H       4.093710    0.848132    3.603257
C       2.974306    1.421464    0.558643
H       3.270820    1.682524   -0.306277
C       1.613139    1.146540    0.784401
H       0.984732    1.242845    0.078994
C       1.185854    0.730468    2.049838
C       3.895723    1.310795    1.613566
H       4.812420    1.506403    1.462091
C       1.423128    4.265642    1.632553
H       0.953783    4.425526    0.821820
C       2.818189    4.437142    1.836275
H       3.450238    4.725307    1.187689
C       1.885333    3.722288    3.786192
H       1.776782    3.447488    4.689778
C       0.865256    3.822215    2.827171
H      -0.052610    3.621112    2.968530
C       3.091400    4.099139    3.179182
H       3.943832    4.123246    3.599100
P       5.880058    2.679048    5.892573
F       5.879158    2.599981    4.302289
F       7.422819    3.072387    5.870122
F       5.860539    2.774229    7.487846
F       4.326319    2.299075    5.907263
F       5.464189    4.213305    5.812886
F       6.287853    1.156158    6.007739
