21
2202814
Cr      1.298649    2.281225    3.687578
F       4.441545    2.281225    2.888723
O       0.760015    0.331416    1.497093
O      -1.609696    2.281225    4.423845
C       1.699743    2.281225    6.003320
C       0.975063    1.057393    2.372909
N       0.919464    2.281225    7.121191
C      -0.498993    2.281225    4.142118
C       3.022581    1.072176    4.338424
C       2.092225    1.067522    5.402906
C       3.504983    2.281225    3.872712
H       1.745209    0.291997    5.708452
H       3.275117    0.310247    4.008237
H       0.521790    1.560358    7.367599
C       3.022581    3.490274    4.338424
C       2.092225    3.494928    5.402906
H       1.745209    4.270453    5.708452
H       3.275117    4.252203    4.008237
H       0.521790    3.002092    7.367599
O       0.760015    4.231034    1.497093
C       0.975063    3.505057    2.372909
