13
2202012
Ni      6.151516    1.656605    0.196101
S       5.417274    1.679598   -1.890209
S       6.789930    1.705044    2.311918
S       5.116972   -0.137824    0.961363
S       7.081959    3.519107   -0.539904
N       5.529098   -0.281591    3.616917
H       4.993674   -0.979109    3.638650
H       5.901665    0.011625    4.359191
N       6.553897    3.754972   -3.165534
H       6.159233    3.491465   -3.906136
H       7.065163    4.471865   -3.170549
C       5.772033    0.320342    2.485115
C       6.378597    3.083288   -2.054629
