28
2202708
Pd      3.164469    0.387932    2.515455
Br      4.364825   -1.796476    2.706866
Br      5.038198    1.642686    3.581240
N       2.215240    3.226876    1.852366
N       0.792231    2.031261    2.907828
N       0.319412   -0.221767    2.461138
N       1.234341   -1.367566    0.902064
C       2.049968    2.024833    2.416758
C       1.064369    3.983778    1.976822
C       0.171416    3.242946    2.632868
C       3.425118    3.655948    1.131680
C       0.195689    0.824396    3.469327
C       1.517453   -0.490138    1.882274
C      -0.119448   -1.661648    0.886627
C      -0.696132   -0.938494    1.851401
C       2.198761   -1.886630   -0.076217
H       0.936403    4.849956    1.661341
H      -0.696435    3.488819    2.861519
H       3.450019    4.615333    1.090194
H       3.410240    3.297585    0.240229
H       4.203315    3.336153    1.592842
H       0.659962    0.565668    4.280702
H      -0.737461    0.977062    3.682542
H      -0.547441   -2.253028    0.310657
H      -1.599765   -0.922424    2.070405
H       2.187279   -2.846015   -0.056922
H       3.078108   -1.571656    0.143751
H       1.959670   -1.581298   -0.954161
