25
2202544
Co      5.601572    6.599390    2.898205
S       7.543781    7.666713    3.410590
S       7.124123    5.586450    1.555363
S       5.807077    5.122718    4.599902
S       3.946610    5.096200    2.488102
S       4.292516    8.056005    4.054369
S       4.926168    8.069196    1.310130
O       9.500382    6.579737    1.919125
O       3.869863    3.285830    4.358376
O       3.336292    9.893835    2.477416
C       8.229935    6.634927    2.273509
C       4.484008    4.350595    3.905855
C       4.101162    8.826378    2.566829
C      10.444965    7.460086    2.569010
C       4.434071    2.643740    5.540382
C       3.174137   10.527848    1.187458
H      10.444765    7.278363    3.501312
H      11.317417    7.322784    2.220078
H      10.183759    8.361973    2.422895
H       3.920367    1.880502    5.779182
H       5.327352    2.378559    5.356103
H       4.431151    3.265639    6.258964
H       2.598850   11.280318    1.263787
H       4.024645   10.810529    0.871239
H       2.799840    9.904604    0.576828
