19
2202088
Zn      3.312460    1.886650    1.089645
Cl      4.708695    0.252946    1.612813
Cl      3.715815    3.359389   -0.498506
S       2.971994    3.181221    3.151941
S       1.026838    1.189952    1.115811
C       2.613560    4.855298    2.557192
H       2.024292    4.804393    1.775974
H       3.450624    5.299402    2.306060
H       2.172087    5.366105    3.266981
C       1.307119    2.552279    3.567738
H       1.407867    1.697423    4.057221
H       0.871538    3.196492    4.179028
C       0.389070    2.320573    2.375986
H       0.204558    3.194737    1.948158
H      -0.472854    1.964237    2.709075
C       1.056516   -0.384422    1.991016
H       1.438142   -0.254526    2.884266
H       1.604676   -1.025124    1.491758
H       0.143370   -0.730226    2.072972
