22
2203582
Cr      0.880078    7.893819    5.183966
F      -2.121801    9.803520    7.866380
F      -0.022094   10.239370    7.759163
F      -0.690533    8.392125    8.623304
C      -0.870499    8.608785    6.282076
C      -0.986056    7.202910    6.157732
C      -0.908597    6.605370    4.889370
C      -0.729998    7.414510    3.736162
C      -0.647527    8.804515    3.854518
C      -0.701859    9.407345    5.139589
C      -0.923217    9.261065    7.633984
C       2.067696    9.281190    4.836876
C       1.985482    6.747510    4.230473
C       1.860250    7.492250    6.702311
O       2.780632   10.149670    4.614227
O       2.670996    6.043135    3.637717
O       2.486654    7.237755    7.636073
H      -1.076121    6.638950    6.939859
H      -0.927503    5.731600    4.784381
H      -0.671785    7.019600    2.872578
H      -0.514682    9.340300    3.152456
H      -0.590338   10.272950    5.231350
