27
2203031
Pd      0.047394    1.456538    2.380905
Cl      2.283981    2.008589    2.358788
Cl     -0.362926    2.929048    0.654536
N       0.302810    0.137745    3.932393
N      -1.945388    0.891782    2.434955
C       1.500508   -0.724944    3.865504
H       2.306728   -0.172775    3.943181
H       1.513123   -1.201710    3.008901
H       1.477847   -1.373891    4.600198
C       0.341517    0.912563    5.193563
H       0.370857    0.296271    5.955228
H      -0.460045    1.472450    5.257215
H       1.139422    1.481950    5.203273
C      -0.888282   -0.770068    3.890318
H      -0.781714   -1.430889    3.161018
H      -0.965939   -1.262864    4.745842
C      -2.121536    0.039186    3.661602
H      -2.293324    0.615698    4.448081
H      -2.898453   -0.562262    3.542929
C      -2.898089    2.013932    2.511553
H      -2.780298    2.595788    1.731547
H      -2.733740    2.527509    3.329318
H      -3.814193    1.665413    2.523420
C      -2.242530    0.096778    1.223411
H      -3.164639   -0.229180    1.263328
H      -1.628217   -0.665571    1.174863
H      -2.127653    0.659040    0.428302
