24
2203957
Zn      0.672150    9.586279   10.840004
Cl      1.379446    7.613154   10.133431
Cl     -1.282538    9.587823   11.865444
N       0.807046   11.060122    9.400595
N       2.141527   10.631776   11.877779
C       0.923852   10.659342    7.990234
H       0.177018   10.105641    7.752808
H       1.739167   10.167427    7.864226
H       0.932896   11.441178    7.434472
C       1.932982   11.928340    9.806075
H       1.803772   12.820678    9.447947
H       2.763802   11.575444    9.450600
C       2.007923   11.988938   11.296949
H       2.768970   12.528381   11.560902
H       1.206821   12.410749   11.644466
C       3.486086   10.106829   11.637834
H       3.555859    9.223997   12.009226
H       4.133428   10.680730   12.052997
H       3.650183   10.068807   10.692110
C       1.907140   10.716376   13.334299
H       1.023343   11.051448   13.497446
H       2.551898   11.309288   13.728240
H       1.996295    9.843049   13.724261
H       0.155052   11.525540    9.483760
