29
2203293
Zn      1.672460   14.128767    3.223527
Cl      1.607328   12.317488    4.535142
Cl      1.770223   16.174889    4.116011
C      -1.081162   14.810105    1.953653
C      -2.035206   14.091946    1.223543
H      -2.897515   14.365999    1.011252
C      -1.457276   12.938112    0.895066
C      -1.912019   11.743522    0.139137
H      -1.871394   10.970552    0.707159
H      -1.343262   11.610009   -0.622530
H      -2.816264   11.877035   -0.156350
C       4.510741   14.507944    2.039717
C       5.451680   13.653461    1.460219
H       6.334957   13.850217    1.246494
C       4.821330   12.501033    1.279485
C       5.230206   11.163092    0.784617
H       6.181629   11.147633    0.652652
H       4.788567   10.980390   -0.047335
H       4.986453   10.495527    1.430097
N       0.018347   14.101784    2.082749
N      -1.197797   16.032803    2.477209
H      -0.542547   16.377126    2.913266
H      -1.929056   16.474099    2.378235
N       3.352259   13.916271    2.155903
N       4.704695   15.785453    2.424136
H       4.049445   16.254856    2.723926
H       5.481822   16.141019    2.335203
O      -0.214922   12.884707    1.394237
O       3.534419   12.606157    1.662470
