23
2204152
Zn      1.927781   10.267737    1.802267
Cl      3.392482   11.381608    3.013280
Cl      0.953975    8.507631    2.680582
N       2.642099    9.731865   -0.030538
N       3.577068   10.546601   -0.526785
C       3.959123   10.329758   -1.766130
H       4.605505   10.893243   -2.124955
C       3.470111    9.330373   -2.566064
H       3.775132    9.217097   -3.437253
C       2.540290    8.526028   -2.050306
H       2.171062    7.833937   -2.549946
C       2.146808    8.757350   -0.749036
H       1.506105    8.200168   -0.368156
N       0.584541   11.708831    1.207110
N      -0.688499   11.360315    1.077323
C      -1.536594   12.292927    0.706622
H      -2.429808   12.053258    0.608221
C      -1.190894   13.595857    0.455529
H      -1.833106   14.228500    0.225644
C       0.104151   13.926998    0.552234
H       0.401472   14.787215    0.363066
C       0.974795   12.935109    0.944990
H       1.877581   13.141731    1.028970
