23
2204015
Ti      1.684981    2.070963    3.101259
Br      0.220653    3.955840    3.164337
Br      1.118473    1.034995    1.025598
Br      0.711158    0.563846    4.685566
C       3.628307    1.810092    4.324429
H       3.614668    1.302640    5.103309
C       3.365020    3.185190    4.233377
H       3.139663    3.741517    4.944242
C       3.496161    3.585975    2.889535
C       3.837676    2.430217    2.135886
C       3.917725    1.329955    3.026662
C       3.404459    4.987902    2.370647
H       2.975148    5.543998    3.025565
H       2.892365    4.995179    1.558857
H       4.286855    5.322917    2.195125
C       4.185094    2.406803    0.683440
H       3.666292    3.068649    0.219403
H       3.992425    1.538335    0.321425
H       5.119239    2.598675    0.573738
C       4.273530   -0.072465    2.658065
H       5.226642   -0.146373    2.561528
H       3.849151   -0.303040    1.828722
H       3.975625   -0.670096    3.346990
