27
2204120
Fe      1.940600    9.750789    2.646464
O       5.497984   13.449453   -1.070887
C       5.393767   12.465388   -0.357583
H       5.986915   11.763233   -0.500542
C       4.412578   12.312653    0.693679
H       3.761620   12.966799    0.808568
C       4.421289   11.244070    1.508333
H       5.050866   10.581997    1.335193
C       3.531171   11.037186    2.636354
C       3.689555   10.035257    3.655075
H       4.386445    9.421975    3.717426
C       2.587995   10.149026    4.553443
H       2.443865    9.625174    5.308479
C       1.749351   11.201086    4.096496
H       0.960599   11.481880    4.502395
C       2.317158   11.753632    2.916558
H       1.965545   12.453218    2.415768
C       0.673132    9.534739    1.042817
H       0.350029   10.218025    0.500542
C       0.061770    9.049070    2.237535
H      -0.730150    9.360568    2.613252
C       0.874280    8.006390    2.751367
H       0.711144    7.517260    3.524910
C       1.971881    7.841821    1.884920
H       2.656100    7.220276    1.983538
C       1.852301    8.794066    0.831670
H       2.448617    8.907277    0.127930
