30
2204538
W      11.064808    3.967899    1.547885
O      11.287001    0.872478    1.222015
O      13.033657    3.540467   -0.846431
O       9.416353    5.106850   -0.828911
O       5.335464    2.858792    4.261721
H       5.083702    3.441803    4.779654
O       7.327454    3.663592    4.792794
C      11.171573    2.008330    1.328229
C      12.324380    3.706808    0.033945
C      10.017116    4.657565    0.024090
C       8.893734    3.215938    1.866967
H       8.358058    3.971813    2.152761
H       8.550304    2.932178    1.005206
C       8.664195    2.091501    2.845893
H       9.158119    2.275781    3.660569
H       9.011072    1.267947    2.468119
C       7.181656    1.898251    3.193006
H       6.664726    1.935760    2.372855
H       7.065374    1.013542    3.572969
C       6.634704    2.906086    4.150032
C      10.807676    5.909204    2.829468
H      10.162792    6.539508    2.603899
C      10.642825    4.854892    3.712034
H       9.868431    4.660011    4.188357
C      11.843408    4.130001    3.764594
H      12.002047    3.371679    4.278146
C      12.765035    4.752967    2.903927
H      13.637717    4.474915    2.748438
C      12.146051    5.858649    2.325770
H      12.531089    6.453076    1.723522
