21
2204793
Br     -1.053101    6.201749    7.928633
Br     -0.012284    3.817039    5.416160
C       0.199823    7.378666    7.161646
C      -0.053973    8.314908    6.120375
H      -0.873156    8.435196    5.654830
C       1.161731    9.039643    5.908552
H       1.292004    9.733304    5.273082
C       2.144969    8.541450    6.816366
H       3.041475    8.848185    6.886198
C       1.555683    7.501962    7.602363
H       1.980834    6.994747    8.283611
C       1.189874    5.142312    4.886679
C       2.529564    5.298686    5.371623
H       2.942274    4.798489    6.066062
C       3.120427    6.343187    4.614335
H       4.012422    6.655936    4.707444
C       2.154533    6.846392    3.689450
H       2.289233    7.559098    3.075706
C       0.954953    6.094592    3.848512
H       0.150061    6.204856    3.356585
Fe      1.467462    7.033039    5.607887
