25
2204907
Pt      0.108363    5.162114    7.874220
S       0.497726    5.805246   10.011545
S      -0.243924    4.482481    5.733423
N      -2.098337    6.053612    9.415185
N       2.275980    4.024632    6.484516
O      -1.817806    5.670351    8.205488
O       1.999853    4.600713    7.584240
C      -1.143213    6.166289   10.420372
C      -1.516414    6.588431   11.689879
H      -0.877768    6.663813   12.361289
C      -2.844911    6.897896   11.956128
H      -3.095364    7.180382   12.806967
C      -3.800205    6.786012   10.952870
H      -4.689304    6.993116   11.132299
C      -3.427003    6.363077    9.683364
H      -4.065649    6.288488    9.011953
C       1.345742    3.872280    5.461965
C       1.726319    3.297786    4.254197
H       1.103762    3.196218    3.571211
C       3.037888    2.876438    4.068981
H       3.292894    2.492383    3.260587
C       3.968296    3.028790    5.089602
H       4.845689    2.746304    4.966124
C       3.586965    3.602490    6.297370
H       4.209522    3.704852    6.980357
