25
2204479
Hg      0.413749    2.083657    0.560719
Cl      1.881933    3.428006   -0.601219
Cl     -1.417075    0.750758    1.061160
O       0.744354    3.396557    2.623074
O       2.007477    0.872525    2.010867
N       0.511985    2.777242    3.723478
N       2.990522    1.559578    2.536737
C      -0.706321    2.775629    4.272896
H      -1.399650    3.174797    3.798827
C      -0.988385    2.241792    5.448648
H      -1.843506    2.301466    5.808124
C       0.031571    1.584576    6.136205
H      -0.136277    1.162022    6.947772
C       1.292802    1.576512    5.585218
H       1.985776    1.166861    6.051437
C       1.554699    2.144218    4.393767
C       2.851911    2.176474    3.743885
C       3.939703    2.739341    4.335686
H       3.863491    3.087706    5.194347
C       5.158489    2.806272    3.681095
H       5.892279    3.219955    4.073536
C       5.250296    2.241792    2.462959
H       6.054215    2.292595    1.999878
C       4.174890    1.602317    1.886855
H       4.263844    1.200730    1.051741
