27
2204894
C       2.628184    3.245309   10.167518
O       5.826469    3.556399   11.120803
O       4.323406    7.097555   10.279669
C       4.087706    6.064516    9.814497
O       1.951461    2.611352   10.851895
C       1.652875    5.359888    9.123748
H       0.974684    4.735630    8.820430
H       1.489229    5.531022   10.064288
C       1.470559    6.661060    8.366728
H       1.614646    6.512097    7.418541
H       2.117906    7.313725    8.673869
C       0.063952    7.184855    8.594854
H      -0.028671    7.457837    9.521375
H      -0.573849    6.475376    8.426627
C       5.296532    4.286663    7.217179
H       6.168681    4.569346    7.377759
C       4.800357    2.965398    7.379034
H       5.290182    2.233748    7.679803
C       3.074605    4.266570    6.633484
H       2.232032    4.541632    6.349283
C       4.217930    5.101455    6.766026
H       4.255549    6.013938    6.590153
C       3.429854    2.948077    7.004347
H       2.869932    2.206034    7.003073
I      -0.375686    8.870351    7.301930
W       3.732170    4.330659    8.920321
C       5.066786    3.827996   10.303884
