27
2205548
Cd     -1.076347   10.950862    3.224341
S       0.855156   12.501145    3.674588
Cl     -1.419584    9.547877    5.231816
C       2.114422   10.097466    4.387942
H       1.400543    9.609222    4.045904
C       2.087774   11.503827    4.350797
C       4.236414   11.519164    5.416249
H       4.941531   12.018395    5.761253
N       3.159255   12.142115    4.888102
H       3.151970   13.002665    4.891971
C       4.286118   10.150113    5.441270
H       5.024763    9.705360    5.789627
C       3.199920    9.442125    4.930663
H       3.206292    8.512791    4.956458
S      -3.007850   12.501145    2.774094
Cl     -0.733111    9.547877    1.216866
C      -4.267117   10.097466    2.060741
H      -3.553237    9.609222    2.402779
C      -4.240468   11.503827    2.097885
C      -6.389108   11.519164    1.032434
H      -7.094226   12.018395    0.687430
N      -5.311949   12.142115    1.560581
H      -5.304664   13.002665    1.556712
C      -6.438813   10.150113    1.007413
H      -7.177457    9.705360    0.659055
C      -5.352614    9.442125    1.518020
H      -5.358986    8.512791    1.492225
