25
2205107
Hg      0.422027    2.119030    0.623575
Br      2.006604    3.476241   -0.647878
Br     -1.568263    0.765114    1.042489
O       0.722120    3.475170    2.654190
O       1.930639    0.914909    2.118555
N       0.459589    2.854251    3.776624
N       2.922496    1.606649    2.612618
C      -0.765630    2.913543    4.293072
H      -1.432578    3.357410    3.821393
C      -1.069769    2.346152    5.485858
H      -1.935002    2.393915    5.826426
C      -0.102998    1.715351    6.166993
H      -0.301940    1.320894    6.985635
C       1.216714    1.640412    5.658540
H       1.895943    1.220427    6.135015
C       1.450108    2.207804    4.446567
C       2.768690    2.230862    3.834185
C       3.833904    2.832016    4.398600
H       3.743209    3.227297    5.234829
C       5.051773    2.873192    3.762234
H       5.779814    3.278354    4.174752
C       5.187564    2.324740    2.543865
H       5.992549    2.383209    2.081780
C       4.120873    1.685704    2.003433
H       4.221884    1.281366    1.172001
