25
2205108
Hg     -0.070641   10.265496    6.672601
I      -2.079557   11.714468    7.460222
I       2.130167    9.652802    5.439135
O       0.596343    9.009198    8.638242
N      -0.349083    8.458479    9.359517
C      -0.907750    9.032733   10.431478
H      -0.633925    9.890976   10.660846
C      -1.860854    8.431806   11.213412
H      -2.243200    8.866419   11.940374
C      -2.213796    7.181313   10.874100
H      -2.837926    6.732579   11.399181
C      -1.690434    6.541161    9.784131
H      -1.964800    5.678211    9.572772
C      -0.730804    7.195434    8.983241
C      -0.146838    6.578817    7.799440
C       0.577984    5.460120    7.820291
H       0.787577    5.061594    8.633503
C       1.015489    4.898418    6.656394
H       1.584050    4.162557    6.676298
C       0.609495    5.425602    5.457428
H       0.860743    5.030214    4.653694
C      -0.172388    6.542730    5.473540
H      -0.431430    6.927135    4.666963
N      -0.578984    7.104432    6.629855
O      -1.356932    8.166645    6.557823
