30
2206188
Ti      1.956548   -0.070476    1.913414
F       3.528717   -0.887163    2.468420
F       1.674995   -1.009774    0.327239
C       1.513648    2.189016    2.249978
C       2.894801    1.993099    2.516837
H       3.300660    2.062669    3.350570
C       3.549087    1.675721    1.306506
H       4.459029    1.516457    1.202890
C       2.590965    1.643667    0.288901
H       2.753024    1.463273   -0.608509
C       1.328884    1.933447    0.863782
H       0.516479    1.953427    0.410697
C       0.291878    0.628431    3.397480
C       1.173423   -0.199224    4.137488
H       1.731404    0.079057    4.827571
C       1.057654   -1.524938    3.644746
H       1.518492   -2.266780    3.962847
C       0.129753   -1.521632    2.596904
H      -0.135371   -2.262468    2.101524
C      -0.336284   -0.193187    2.420945
H      -0.946150    0.090556    1.779372
C       0.404290    2.151213    3.294146
C      -0.883869    2.803649    2.788311
H      -0.731066    3.738677    2.636560
H      -1.576452    2.695125    3.443825
H      -1.153283    2.386084    1.966823
C       0.838766    2.796749    4.609036
H       1.634746    2.365960    4.929304
H       0.139226    2.700875    5.258992
H       1.015682    3.728616    4.464915
