29
2206196
Cd      2.023541    3.092577    8.109101
Cl      3.280388    3.248304    6.022427
Cl      0.226816    1.394374    7.634011
S       3.446616    2.151351    9.989582
C       2.491738    0.990643   10.844836
N       1.294964    0.475112   10.510844
H       0.919376    0.640601    9.817983
N       2.839760    0.425542   12.017822
C       0.885415   -0.421729   11.483044
H       0.077789   -0.922770   11.485003
C       1.842955   -0.448421   12.419592
H       1.838650   -0.970053   13.212748
C       4.086223    0.683308   12.746335
H       4.847098    0.584167   12.137315
H       4.172254    0.042707   13.483076
H       4.072462    1.594638   13.105009
S       0.486280    5.069135    8.671246
C      -0.905094    4.768663    7.682395
N      -2.043892    4.160092    8.043420
H      -2.150820    3.774969    8.822864
N      -1.088486    5.194967    6.418908
C      -2.959965    4.205849    7.013628
H      -3.840296    3.847418    7.018722
C      -2.360848    4.859415    5.994611
H      -2.741885    5.051595    5.146018
C      -0.078580    5.904967    5.621833
H       0.146665    6.752237    6.058863
H      -0.436012    6.084182    4.726814
H       0.726651    5.351305    5.547591
