25
2206639
Zn      6.020312    7.535923    5.989329
Cl      7.740866    8.582019    6.897208
Cl      4.093468    8.670154    6.242161
N       6.327254    6.974908    4.073029
N       5.527376    4.753982    4.405595
N       5.683532    5.635105    6.610983
C       6.798268    7.916694    3.208538
C       6.920990    7.701024    1.856283
C       6.522252    6.461228    1.344804
C       6.044540    5.492153    2.203025
C       5.978211    5.771714    3.579450
C       5.424231    4.612657    5.778022
C       5.022447    3.350167    6.262697
C       4.894776    3.162732    7.619404
C       5.179165    4.219246    8.495343
C       5.568307    5.419527    7.948790
H       5.269266    4.098806    3.978075
H       7.036861    8.729829    3.589172
H       7.291075    8.392008    1.305732
H       6.559663    6.274647    0.437061
H       5.776129    4.642910    1.910893
H       4.858675    2.670001    5.641815
H       4.627556    2.319985    7.945246
H       5.086109    4.137416    9.431799
H       5.765852    6.154498    8.489528
