28
2207464
Pd     -1.189126    0.103834    5.705108
Cl      1.195985   -0.480673    5.541466
N      -0.704580    2.089075    5.754646
N      -1.710254   -1.877045    5.720519
C      -3.174653    0.562553    5.885034
H      -3.652764    0.262207    5.083886
H      -3.277907    1.532719    5.983743
H      -3.543618    0.113226    6.673939
C      -1.001063    2.875696    6.807081
H      -1.526103    2.518379    7.512581
C      -0.567490    4.186254    6.895536
H      -0.772963    4.711383    7.659497
C       0.168083    4.720441    5.855957
H       0.471149    5.619573    5.894981
C       0.457616    3.936085    4.763120
H       0.951419    4.288276    4.032522
C       0.013065    2.617422    4.748429
H       0.224061    2.071435    4.000384
C      -2.603275   -2.409444    4.868257
H      -3.022134   -1.843792    4.229940
C      -2.933966   -3.754327    4.889223
H      -3.567450   -4.103540    4.272790
C      -2.327483   -4.588027    5.821983
H      -2.540140   -5.513498    5.855192
C      -1.408747   -4.044305    6.698425
H      -0.983142   -4.591006    7.348832
C      -1.116688   -2.698229    6.618846
H      -0.475480   -2.333642    7.217220
