30
2207540
Ni      3.482000    3.569500    0.000000
N       3.950677    1.886838    0.636051
H       4.325340    1.366405    0.062140
N       4.094832    0.073532    2.080816
H       4.393588   -0.423343    1.446984
H       3.988283   -0.252721    2.869555
N       3.332970    2.036757    2.919933
N       2.864990    4.002837    1.687778
H       2.497987    4.778133    1.753247
N       2.513308    3.887899    3.970106
H       2.245194    4.704601    3.979205
H       2.536289    3.435287    4.700477
C       3.791202    1.378541    1.838024
C       2.901899    3.309640    2.799425
N       3.013323    5.252162   -0.636051
H       2.638660    5.772595   -0.062140
N       2.869168    7.065468   -2.080816
H       2.570412    7.562343   -1.446984
H       2.975717    7.391721   -2.869555
N       3.631030    5.102243   -2.919933
N       4.099010    3.136163   -1.687778
H       4.466013    2.360867   -1.753247
N       4.450692    3.251101   -3.970106
H       4.718806    2.434399   -3.979205
H       4.427711    3.703713   -4.700477
C       3.172798    5.760459   -1.838024
C       4.062101    3.829360   -2.799425
O       4.764072    5.763315    4.711130
H       5.453508    5.639810    4.323196
H       4.262664    5.154358    4.542907
