15
2208816
Pd      0.000000    0.000000    0.000000
Br      0.587909    1.581711   -1.735012
C       2.155947    1.250307    1.846284
C       3.160982    1.846496    2.707883
N       1.373877    0.778425    1.171435
H       2.735105    2.387169    3.374950
H       3.633644    1.109104    3.133024
H       3.812949    2.363032    2.226152
Br     -0.587909   -1.581711    1.735012
C      -2.155947   -1.250307   -1.846284
C      -3.160982   -1.846496   -2.707883
N      -1.373877   -0.778425   -1.171435
H      -2.735105   -2.387169   -3.374950
H      -3.633644   -1.109104   -3.133024
H      -3.812949   -2.363032   -2.226152
