22
2208481
Ni      4.748721    9.232019   11.473770
O       3.621397    8.214657   10.241831
O       3.505049    7.404014    8.195357
O       3.513919    9.004736   12.979023
O       3.259832    9.430080   15.134985
O       3.636528   11.228863   10.790621
N       5.980706    9.395446    9.912016
H       6.158619   10.263451    9.756571
H       6.757055    8.978761   10.093144
N       5.921227   10.107600   12.810061
H       6.674098    9.625976   12.912790
H       6.150793   10.927983   12.518094
C       4.064355    8.076123    9.072610
C       5.362965    8.793688    8.714410
H       5.981227    8.161624    8.314307
H       5.178791    9.487442    8.061539
C       3.894267    9.502594   14.072549
C       5.232009   10.221241   14.099583
H       5.090617   11.158513   14.307745
H       5.788705    9.840272   14.797060
H       3.907833   11.591433   10.110716
H       3.052179   11.667194   11.165042
