24
2208465
Zn      7.603861    6.303709    1.807725
O       5.533393    5.327443    1.807725
N       7.954174    4.318896    1.807725
N       7.316471    7.480922    3.403585
H       7.038712    8.282223    3.134595
H       8.081484    7.566005    3.851177
H       6.701591    7.116464    3.934333
C       6.954955    3.440005    1.807725
C       5.562498    4.056410    1.807725
C       9.224765    3.913166    1.807725
O       4.592909    3.295238    1.807725
C      10.239269    5.048321    1.807725
O      11.438876    4.749389    1.807725
C       7.199944    2.077032    1.807725
H       6.497434    1.466723    1.807725
O       9.740916    6.208746    1.807725
C       8.519114    1.643238    1.807725
H       8.709660    0.732727    1.807725
C       9.546181    2.567718    1.807725
H      10.435050    2.290882    1.807725
N       7.316471    7.480922    0.211865
H       7.038712    8.282223    0.480855
H       8.081484    7.566005   -0.235727
H       6.701591    7.116464   -0.318883
