30
2209203
Zn      2.353204    5.782849    1.311735
Br      1.401489    6.364528   -0.808645
Br      4.614538    5.208522    1.340281
O       1.235802    4.439263    2.149102
N       1.978036    7.252974    2.622236
N       1.887742    9.568401    0.671198
H       1.586528   10.251593    1.173583
H       1.247834    8.935706    0.655515
C       0.244601    5.951196    3.755114
C       0.386777    4.691747    3.133079
C      -0.399350    3.645423    3.605332
H      -0.323636    2.807028    3.210613
C      -1.281043    3.821420    4.639707
H      -1.781315    3.100355    4.946318
C      -1.431120    5.058591    5.228260
H      -2.045050    5.174437    5.917256
C      -0.689271    6.101944    4.803585
H      -0.794815    6.932914    5.207115
C       1.068319    7.112623    3.499604
H       0.912643    7.850025    4.044104
C       2.831526    8.445590    2.667875
H       3.675348    8.216869    3.089026
H       2.402397    9.123584    3.212376
C       3.101053    9.009223    1.300457
H       3.771842    9.705782    1.369180
H       3.457445    8.308209    0.733049
C       2.125682   10.050348   -0.708379
H       2.848503   10.681558   -0.706617
H       1.330122   10.474373   -1.039661
H       2.350586    9.307006   -1.272263
