27
2209676
Cr      5.683140    8.406425    8.422412
S       7.327062    6.627677   10.492047
C       8.092888    5.012215   10.847767
H       8.058484    4.848970   11.824049
H       7.563617    4.302493   10.404822
O       7.232244    8.276341    5.796537
O       4.268273    8.490246   11.109928
O       4.331150   10.977534    7.520441
O       3.446120    6.739422    7.192374
C       7.062175    9.465608    9.182216
O       7.868219   10.125719    9.643678
C       6.652344    8.317874    6.781469
C       4.777847    8.463359   10.088572
C      10.192432    3.646375   10.904902
H      10.177628    3.649841   11.884960
H      11.120356    3.609742   10.592428
H       9.704082    2.864066   10.572937
C       4.282791    7.359895    7.651035
C       6.596777    6.664952    8.979382
C       4.829417    9.999027    7.850579
C       6.636773    5.413923    8.154281
H       7.545472    5.046112    8.163296
H       6.377805    5.622335    7.232576
H       6.014422    4.755777    8.527544
C       9.532585    4.912269   10.384112
H      10.036870    5.701580   10.705723
H       9.559768    4.914384    9.394917
