23
2210244
Zn      1.553517    3.150250    7.498169
I       3.175603    3.340809    9.484013
I      -0.703690    2.094848    8.022112
N       2.451470    2.032712    6.011812
N       3.688845    2.473760    5.708601
C       4.364602    1.790136    4.803959
H       5.227943    2.105356    4.564385
C       3.894453    0.642114    4.181316
H       4.425322    0.181608    3.543700
C       2.644664    0.193283    4.511978
H       2.279812   -0.594118    4.126414
C       1.929672    0.953442    5.449062
H       1.048389    0.688813    5.684893
N       1.483438    4.999409    6.599517
N       0.904674    5.941176    7.360663
C       0.901363    7.189082    6.908967
H       0.493368    7.858438    7.445513
C       1.467213    7.576945    5.681149
H       1.439866    8.478499    5.384177
C       2.055192    6.601451    4.938719
H       2.468259    6.799922    4.107697
C       2.032468    5.296468    5.441575
H       2.427640    4.599871    4.928737
