23
2210028
Zn      5.849563    2.221981    9.214995
Br      6.573145    2.201279   11.475491
Br      6.756575    0.576245    7.797038
N       3.814411    2.072112    9.211679
N       3.192013    3.214106    9.595844
C       1.871640    3.211191    9.604135
H       1.428848    4.014960    9.850112
C       1.090086    2.122651    9.279391
H       0.141373    2.172219    9.300120
C       1.736490    0.966079    8.924246
H       1.253687    0.177860    8.703143
C       3.123549    0.992320    8.902135
H       3.592126    0.203129    8.656159
N       6.288887    4.117011    8.551135
N       7.603036    4.248219    8.374253
C       8.089396    5.449499    8.070238
H       9.024771    5.535999    7.930667
C       7.298061    6.576915    7.947249
H       7.675946    7.426364    7.753785
C       5.954571    6.421409    8.115840
H       5.362403    7.158117    8.027399
C       5.482437    5.161814    8.415710
H       4.547062    5.037410    8.530407
