26
2210614
Pt      0.978685    5.266152    5.590181
Cl      0.776294    5.734529    3.343812
Cl      2.713001    6.763900    5.820305
O      -2.546521    2.482823    3.955218
N       1.134773    4.768078    7.540008
N      -0.581024    3.897265    5.558416
C       0.453076    3.489543    7.740159
C      -0.790859    3.494577    7.004281
C      -1.839004    4.495005    5.038622
C      -2.934617    3.494577    4.866352
C      -1.404682    1.786928    4.455097
C      -0.252736    2.742054    4.677155
H       1.963104    4.698866    7.761070
H       0.772286    5.375885    8.028934
H       1.017225    2.763446    7.428482
H       0.277233    3.354894    8.684154
H      -1.408871    4.113710    7.422507
H      -1.186972    2.608663    7.036146
H      -1.658884    4.914052    4.183251
H      -2.136341    5.185866    5.651023
H      -3.147065    3.094406    5.724711
H      -3.731172    3.940050    4.536751
H      -1.139613    1.102358    3.821784
H      -1.631398    1.352780    5.292544
H       0.486794    2.251278    5.069491
H       0.042361    3.079305    3.816806
