25
2212376
Pd      0.751715    7.810433    2.663049
O      -0.293360    9.124493    1.536490
O      -1.654651   10.854921    1.442890
O      -0.355248    8.217789    4.296309
O      -1.720961    9.595715    5.347368
N       1.753020    7.347166    0.966939
H       1.266786    7.639348    0.269139
H       2.525835    7.808409    0.965414
N       1.692826    6.414044    3.794207
H       2.460375    6.774656    4.095926
H       1.177017    6.247828    4.512165
C       2.072695    5.919639    0.736046
H       2.602700    5.841882   -0.071916
H       1.246671    5.430652    0.597118
C       2.834615    5.286472    1.889857
H       3.157413    4.416502    1.608297
H       3.608958    5.835051    2.089914
C       2.020563    5.113933    3.158952
H       1.197472    4.646012    2.948544
H       2.521262    4.570295    3.786471
C      -0.904472    9.379706    4.463568
C      -0.491041   10.500004    3.509813
H      -0.932854   11.323067    3.770126
H       0.466706   10.640590    3.573992
C      -0.858092   10.163833    2.064525
