28
2212557
Co      0.616357   12.781978    3.404511
O       1.973221   12.336595    4.651693
O       2.310585   11.934512    6.819010
O      -0.055665   11.010251    3.325280
O       0.411022    8.980090    2.552405
O      -0.731645   13.331524    2.192018
O      -1.327046   14.970902    0.827406
N      -0.505110   13.031969    4.963084
H      -0.513116   13.897953    5.207392
H      -1.349887   12.777348    4.784915
N       1.816936   12.243597    1.985504
H       1.491567   12.499580    1.186443
H       2.626030   12.622125    2.098884
N       1.157744   14.640031    3.352815
H       0.781523   15.092085    4.033096
H       2.052184   14.705388    3.425702
C       1.559627   12.146923    5.880924
C       0.062134   12.202749    6.040196
H      -0.307352   11.306809    5.995654
H      -0.163085   12.584000    6.902696
C       0.669072   10.186204    2.663085
C       1.926714   10.775782    2.044893
H       2.698817   10.527969    2.576700
H       2.048185   10.420401    1.149999
C      -0.555568   14.488892    1.641314
C       0.708471   15.195568    2.058391
H       1.395961   15.067576    1.387558
H       0.541707   16.147333    2.147475
