25
2213789
Au      8.551041    9.714005    6.626166
Cl      7.794365   10.886871    8.414129
Cl     10.378450   11.037793    6.520785
Cl      9.240624    8.567375    4.779681
N       6.905666    8.518569    6.707201
C       5.747441    9.044042    6.253401
H       5.715462    9.950376    6.045331
C       4.620322    8.288131    6.089581
H       3.826438    8.671051    5.791128
C       4.695131    6.924612    6.382386
H       3.958273    6.372959    6.253401
C       5.856966    6.418912    6.856898
H       5.907046    5.515789    7.072500
C       6.966546    7.217599    7.028250
C       8.243677    6.680644    7.609152
C       8.843677    7.276065    8.709758
H       8.497411    8.066900    9.056228
C       9.957711    6.692732    9.294425
H      10.350140    7.084661   10.040088
C      10.482139    5.532654    8.770955
H      11.231616    5.140717    9.158850
C       9.889081    4.951661    7.664700
H      10.245759    4.169401    7.310698
C       8.781380    5.516797    7.084740
H       8.392079    5.118535    6.340018
