29
2214811
Hf      0.976940    3.855450    5.920792
Cl      3.305336    3.855450    6.644125
Cl      1.576328    3.855450    3.567090
C      -0.173556    1.747290    5.203895
H      -0.445421    1.651675    4.298498
C      -0.934534    2.320981    6.234694
H      -1.813238    2.671056    6.149998
C      -0.169915    2.285511    7.413876
H      -0.434497    2.620164    8.262808
C       1.054688    1.668639    7.113171
H       1.757409    1.502083    7.730994
C       1.070466    1.333986    5.742274
C       2.167632    0.638463    4.990513
H       3.031773    0.854368    5.398236
H       2.162778    0.934561    4.056228
H       2.024418   -0.331569    5.025967
C      -0.173556    5.963610    5.203895
H      -0.445421    6.059225    4.298498
C      -0.934534    5.389919    6.234694
H      -1.813238    5.039844    6.149998
C      -0.169915    5.425389    7.413876
H      -0.434497    5.090736    8.262808
C       1.054688    6.042261    7.113171
H       1.757409    6.208817    7.730994
C       1.070466    6.376914    5.742274
C       2.167632    7.072437    4.990513
H       3.031773    6.856532    5.398236
H       2.162778    6.776339    4.056228
H       2.024418    8.042469    5.025967
