23
2214922
Ag      0.262839    6.208568    7.136753
N      -1.086716    7.833225    7.108072
N      -2.601926    9.222885    6.404494
H      -3.244167    9.549543    5.935140
N       1.791384    4.752375    7.283198
N       3.112823    3.166065    6.603115
H       3.453920    2.558635    6.099604
C      -2.040090    8.029875    6.239307
H      -2.293790    7.415890    5.588141
C      -1.981159    9.830315    7.444228
H      -2.162945   10.675910    7.785805
C      -1.046763    8.963963    7.881772
H      -0.467947    9.109265    8.595471
C       2.061564    3.920983    6.314671
H       1.578136    3.864173    5.521271
C       3.551804    3.522220    7.829180
H       4.280443    3.166065    8.284617
C       2.717290    4.506563    8.266002
H       2.766731    4.937008    9.088861
O       5.462047   -0.423890    4.686664
O       5.514985    0.926440    6.359673
O       4.124627    1.229063    4.768535
N       5.045040    0.580118    5.282528
