27
2214603
Fe      4.352278    0.427623    3.684975
C       4.997714    2.268301    3.058254
H       5.876921    2.514599    2.882669
O       6.820821   -1.254544    1.299389
C       3.845862   -1.191925    4.853085
H       3.117374   -1.262738    5.427567
C       4.633310   -1.764104    0.526484
H       5.069859   -1.820529   -0.326830
H       3.957892   -1.082837    0.495031
H       4.227218   -2.608287    0.734342
C       5.176928   -1.287608    2.969367
C       2.985902    1.869346    4.161408
H       2.334012    1.811751    4.821769
C       2.841756    1.497017    2.792141
H       2.071470    1.151039    2.402680
C       3.854775   -1.536008    3.475886
H       3.133433   -1.863296    2.987965
C       5.144855   -0.719236    5.205623
H       5.405062   -0.422153    6.047040
C       4.067776    1.743040    2.122207
H       4.234916    1.586211    1.221168
C       5.968849   -0.779779    4.059257
H       6.864347   -0.533718    4.016318
C       5.646290   -1.418923    1.586562
N       5.444646    3.179916    6.492021
C       4.328985    2.348766    4.326875
C       4.932610    2.802122    5.539564
