22
2215628
Pt      4.688184    3.091476    1.923101
Br      2.894202    1.356735    1.412976
C       5.613555    2.962171   -0.191037
H       5.016885    2.639669   -0.897293
C       6.196854    2.075542    0.485117
H       6.014416    1.144429    0.239664
C       7.548787    2.365693    1.227265
H       8.302740    1.902664    0.948236
C       7.680323    3.235136    2.264651
H       8.512025    3.393860    2.652513
C       6.457285    3.935745    2.759031
H       6.424047    4.060096    3.730423
C       5.821728    4.923473    2.037723
H       5.409506    5.633181    2.571468
C       6.170593    5.287425    0.613633
H       6.461681    6.154846    0.427227
C       6.083737    4.448312   -0.324183
H       6.313290    4.746551   -1.179795
C       3.539014    3.680978    3.655166
H       3.341900    2.906567    4.187752
H       2.715705    4.087392    3.369190
H       4.041045    4.309808    4.176174
