30
2215933
Ag      2.718179    4.613614    4.632340
C       4.356951    1.639403    2.487633
C       4.735031    1.394180    1.164853
H       5.573324    1.028925    0.998615
C       3.901957    1.677708    0.089056
C       2.636818    2.213336    0.347912
C       2.261654    2.465861    1.661192
H       1.421901    2.829361    1.826243
C       3.100811    2.193390    2.742927
C       1.670298    2.504945   -0.776569
H       2.063658    3.139022   -1.380963
H       0.858942    2.867596   -0.415595
H       1.475117    1.692384   -1.249160
C       4.363871    1.395641   -1.309718
H       3.755982    0.782959   -1.730062
H       5.241789    1.008574   -1.285970
H       4.388703    2.214358   -1.810807
N       2.647120    2.514284    4.066894
O       6.372460    0.205638    3.223829
O       6.241700    2.467961    4.071643
O       4.739188    0.777471    4.898558
O       2.440221    6.723747    4.841088
S       5.516412    1.234396    3.767190
H       1.840623    7.139588    4.239069
H       3.260908    7.282780    4.702160
H       3.071688    2.123945    4.702160
H       1.862350    2.363884    4.132201
O       2.270939    4.681932    7.427276
H       2.132972    5.439805    7.967549
H       1.379070    4.631178    7.373842
