26
2215252
Zn     12.899417    1.996549    2.860818
Cl     11.667549    0.664158    1.562235
O      13.176758    4.076255    5.176020
O      11.678470    3.297168    3.715973
C      12.115638    4.148638    4.539774
C      11.260496    5.376737    4.745982
H      11.208676    5.570334    5.695316
H      11.686651    6.133238    4.312969
N       9.899791    5.224994    4.214671
H       9.901471    4.993616    3.346012
H       9.468411    4.634463    4.687164
H       9.501608    5.919128    4.282072
Cl     14.131285    0.664158    4.159400
O      12.622076    4.076255    0.545615
O      14.120364    3.297168    2.005662
C      13.683196    4.148638    1.181861
C      14.538338    5.376737    0.975653
H      14.590158    5.570334    0.026320
H      14.112183    6.133238    1.408667
N      15.899043    5.224994    1.506964
H      15.897363    4.993616    2.375623
H      16.330423    4.634463    1.034472
H      16.297226    5.919128    1.439563
O       8.717292    0.953829    4.259872
H       9.020901    1.478055    4.840503
H       7.993333    0.815002    4.445711
