30
2215991
Ti     10.138552    3.083133    7.519840
Br     11.779964    4.749478    8.434653
C      10.700083    1.049544    6.532234
C      11.896961    1.777422    6.725745
H      12.574738    1.558767    7.324324
C      11.892578    2.893049    5.855449
H      12.579808    3.513057    5.764208
C      10.697875    2.907626    5.165629
H      10.435884    3.540267    4.536970
C       9.936689    1.779366    5.588745
H       9.082511    1.558767    5.294970
C      10.138552    0.040816    7.519840
C       9.029913   -0.833804    6.907223
H       8.600742   -1.339140    7.601054
H       9.414602   -1.434377    6.264528
H       8.383032   -0.273076    6.473078
C       9.577020    1.049544    8.507445
C       8.380142    1.777422    8.313935
H       7.702366    1.558767    7.715356
C       8.384526    2.893049    9.184231
H       7.697296    3.513057    9.275472
C       9.579228    2.907626    9.874051
H       9.841219    3.540267   10.502710
C      10.340415    1.779366    9.450935
H      11.194592    1.558767    9.744710
C      11.247190   -0.833804    8.132456
H      11.676361   -1.339140    7.438626
H      10.862502   -1.434377    8.775152
H      11.894071   -0.273076    8.566601
Br      8.497139    4.749478    6.605026
