17
2216035
Pt      5.584553    1.494633    6.193443
Cl      7.273578    1.932279    7.696802
Cl      4.073535    0.938490    7.895429
N       4.081994    1.061726    4.816708
H       3.586270    0.387088    5.145684
H       4.470562    0.764696    4.061304
C       6.968249    3.554888    4.376004
H       7.571319    3.717622    3.646670
H       6.100434    3.902477    4.157514
H       7.296999    3.989374    5.166789
N       6.864087    2.022336    4.630495
H       6.577359    1.624189    3.876333
H       7.686372    1.703186    4.811122
C       3.126379    2.227730    4.444282
H       2.477848    1.918059    3.807434
H       2.677441    2.537400    5.233825
H       3.633792    2.946607    4.061304
