24
2216947
Zn      7.166782    2.743550    1.321893
I       4.625192    2.743550    1.447262
I       8.191505    2.743550   -1.010216
N       8.051111    4.250308    2.419150
C       8.112733    4.128494    3.759242
C       8.717808    5.084347    4.565319
H       8.730355    4.985579    5.510184
C       9.299181    6.178475    3.962369
H       9.716040    6.846803    4.491788
C       9.274085    6.300288    2.591027
H       9.683974    7.043242    2.164551
C       8.636945    5.315902    1.842856
H       8.616032    5.398209    0.897071
S       7.310383    2.743550    4.527726
N       8.051111    1.236792    2.419150
C       8.112733    1.358606    3.759242
C       8.717808    0.402753    4.565319
H       8.730355    0.501521    5.510184
C       9.299181   -0.691375    3.962369
H       9.716040   -1.359703    4.491788
C       9.274085   -0.813188    2.591027
H       9.683974   -1.556142    2.164551
C       8.636945    0.171198    1.842856
H       8.616032    0.088891    0.897071
