27
2216135
I       8.941553    1.673564   -0.404281
Br      5.227936    1.379331    6.783812
Zn      7.129122    2.720372    7.055337
Br      8.967956    1.532459    7.927613
N       7.045810    4.607042    7.918734
N       7.744807    3.867320    5.409523
C       8.550946    2.382488    1.547076
C       7.985180    5.089572    5.759760
H       8.405638    5.673391    5.170112
C       7.724422    6.882152    7.487196
H       8.091671    7.509188    6.907390
C       8.672941    3.755035    1.780068
H       8.930880    4.324968    1.092217
C       8.155065    1.518806    2.560987
H       8.064210    0.608514    2.391966
C       8.034841    3.401869    4.089449
C       6.644999    4.978305    9.139963
H       6.281866    4.336300    9.705862
C       7.586806    5.548799    7.099731
C       8.405613    4.264736    3.046654
H       8.472652    5.179474    3.201768
C       7.892477    2.026725    3.835062
H       7.623784    1.454160    4.516494
C       6.751732    6.292077    9.597817
H       6.460690    6.519490   10.451479
C       7.299832    7.255063    8.758061
H       7.381407    8.136843    9.042615
