29
2216859
C       2.848609   12.520486    0.727344
H       2.745746   12.990965    1.522950
C       3.813536   11.539971    0.666968
C       3.958480   10.831373   -0.521573
H       4.596699   10.158493   -0.595133
C       3.144341   11.140160   -1.585051
H       3.221488   10.676979   -2.387926
C       2.210974   12.146792   -1.443722
H       1.671527   12.359180   -2.171066
C       4.632351   11.265941    1.857112
H       4.476303   11.777323    2.618340
Cl     -0.715191   14.402400   -1.795011
Cl      0.051724   14.402400    1.962584
N       2.049082   12.830618   -0.307054
O       5.490908   10.425417    1.912559
Zn      0.730738   14.402400   -0.153527
C       2.848609   16.284314    0.727344
H       2.745746   15.813835    1.522950
C       3.813536   17.264829    0.666968
C       3.958480   17.973427   -0.521573
H       4.596699   18.646307   -0.595133
C       3.144341   17.664640   -1.585051
H       3.221488   18.127821   -2.387926
C       2.210974   16.658008   -1.443722
H       1.671527   16.445620   -2.171066
C       4.632351   17.538859    1.857112
H       4.476303   17.027477    2.618340
N       2.049082   15.974182   -0.307054
O       5.490908   18.379383    1.912559
