24
2216945
Zn      8.068953    2.978075    2.931484
Cl      9.189684    1.077067    3.165431
Cl      8.325785    4.155308    1.059776
N       6.048632    2.876611    3.324291
C       5.603596    2.782634    4.586749
C       4.245150    2.731443    4.884694
H       3.951745    2.642050    5.783873
C       3.328134    2.813195    3.853243
H       2.396603    2.770409    4.036286
C       3.778625    2.956835    2.551905
H       3.163942    3.033239    1.831760
C       5.140463    2.987396    2.323436
H       5.452833    3.089778    1.432273
N       8.461024    4.201456    4.538517
C       7.857057    3.996693    5.726422
C       8.149034    4.749273    6.851398
H       7.695973    4.595701    7.671749
C       9.128531    5.743289    6.745848
H       9.367332    6.260544    7.506075
C       9.743507    5.965624    5.530019
H      10.411451    6.634923    5.439165
C       9.366597    5.191652    4.446461
H       9.763985    5.367381    3.602061
S       6.755805    2.613934    5.935919
