27
2216136
I       7.701406    6.892770   15.910324
Zn      9.610822    5.924222    8.726824
Cl     11.424910    7.151988    8.919999
Cl      7.850250    7.004994    7.922568
N       9.016214    4.755070   10.352153
N       9.739109    4.049149    7.874404
C      10.154261    3.702546    6.656809
H      10.486520    4.365132    6.095241
C      10.113555    2.390841    6.189701
H      10.419909    2.184323    5.336450
C       9.608042    1.392296    7.018039
H       9.565002    0.508674    6.730508
C       9.165418    1.753284    8.296877
H       8.825962    1.115400    8.882319
C       9.247183    3.101877    8.670564
C       8.820128    3.535270   10.018949
H       8.419927    2.938345   10.608543
C       8.717401    5.219239   11.675626
C       8.336904    4.359415   12.699111
H       8.286873    3.443946   12.543409
C       8.030230    4.868099   13.956151
H       7.775381    4.293170   14.641243
C       8.105241    6.236609   14.188667
C       8.485739    7.096433   13.165181
H       8.535770    8.011901   13.320884
C       8.792397    6.586895   11.908142
H       9.047246    7.161824   11.223050
