21
2216100
I       7.430944   10.400973    9.081297
Cd      5.184500    8.879009    9.594000
S       4.631210    7.296915    7.660873
C       5.682212    7.458764    6.366578
N       6.573946    8.361192    6.266801
H       7.072695    8.396504    5.567078
H       6.676599    8.935999    6.897446
C       5.565042    6.492577    5.226811
H       5.437504    6.978123    4.408123
H       4.814327    5.912865    5.373919
H       6.366566    5.968776    5.166689
I       2.938056   10.400973   10.106703
S       5.737790    7.296915   11.527127
C       4.686788    7.458764   12.821422
N       3.795054    8.361192   12.921199
H       3.296305    8.396504   13.620922
H       3.692401    8.935999   12.290554
C       4.803958    6.492577   13.961189
H       4.931496    6.978123   14.779877
H       5.554673    5.912865   13.814081
H       4.002434    5.968777   14.021311
