30
2217424
Zn      4.883817    2.682538    6.666386
Se      4.187458    1.192134    3.914217
O       3.830931    1.455091    5.516911
O       3.344879   -0.136366    3.485545
O       5.784547    0.921453    3.788987
O       3.716421    2.480591    3.050997
S       6.481691    3.908803    5.513752
C       5.662754    5.158243    4.657135
N       6.349590    5.784893    3.711744
N       4.433621    5.534233    4.921086
S       5.861410    1.357822    8.319279
C       7.174241    0.501321    7.602141
N       7.284045    0.319237    6.301814
N       8.091890    0.019706    8.396364
S       3.315636    3.951999    7.832131
C       4.308130    4.723134    9.018568
N       3.764712    5.073113   10.161409
N       5.578721    5.006112    8.795845
H       7.165726    5.504367    3.494549
H       5.993915    6.485686    3.294193
H       4.027816    6.129118    4.398049
H       4.004712    5.193508    5.622950
H       6.621747    0.566027    5.760627
H       8.019733   -0.050637    5.964759
H       8.052764    0.181256    9.270830
H       8.756608   -0.469263    8.063463
H       4.188679    5.638367   10.701837
H       2.970840    4.744346   10.395442
H       5.999528    4.646683    8.098894
H       6.014553    5.557147    9.342734
