27
2217234
Cd      0.000000    0.000000    0.000000
N       2.086193   -0.201365    0.929977
N       3.976649    0.917624    1.409943
N       4.087323   -0.398314    1.710879
H       4.793142   -0.763951    2.038983
O       0.955049    2.108151   -0.071751
O       2.630861    3.342836    0.705668
O      -0.931253    0.763951    1.984648
H      -0.340478    1.084545    2.505017
H      -1.362299    0.151024    2.386593
C       2.075547    2.251226    0.489022
C       2.740240    0.991811    0.944606
C       2.966011   -1.047451    1.432931
H       2.822484   -1.956244    1.570860
N      -2.086193    0.201365   -0.929977
N      -3.976649   -0.917624   -1.409943
N      -4.087323    0.398314   -1.710879
H      -4.793142    0.763951   -2.038983
O      -0.955049   -2.108151    0.071751
O      -2.630861   -3.342836   -0.705668
O       0.931253   -0.763951   -1.984648
H       0.340478   -1.084545   -2.505017
H       1.362299   -0.151024   -2.386593
C      -2.075547   -2.251226   -0.489022
C      -2.740240   -0.991811   -0.944606
C      -2.966011    1.047451   -1.432931
H      -2.822484    1.956244   -1.570860
