25
2217684
Pt      3.267737    2.630655    4.546082
N       3.321542    3.515183    1.782221
C       3.429665    4.424205    0.780562
H       3.605823    5.337704    0.977010
C       3.282023    4.009995   -0.518383
H       3.398751    4.625712   -1.232466
C       2.959079    2.675569   -0.786537
H       2.833448    2.382264   -1.681383
C       2.827026    1.797893    0.253963
H       2.600821    0.893349    0.076189
C       3.021455    2.216580    1.586520
O       3.527332    4.003278    3.042324
S       2.875988    1.137397    2.925053
N       3.574770    3.669672    7.234203
C       3.861805    4.594366    8.188057
H       4.141139    5.465326    7.930359
C       3.751953    4.287628    9.504181
H       3.933920    4.943646   10.167472
C       3.370569    3.004698    9.870933
H       3.302113    2.774084   10.789681
C       3.093311    2.062091    8.905875
H       2.821193    1.186654    9.159838
C       3.211637    2.393459    7.547921
O       3.658644    4.079403    5.936005
S       2.970186    1.247554    6.275120
