29
2217396
C       2.482798    2.518153   -2.009210
H       2.616254    1.750027   -1.502382
C       2.785367    2.524247   -3.352942
H       3.118113    1.763557   -3.771394
Pt      0.945603    6.250790   -0.974994
Cl      2.970150    3.707183   -5.761438
Cl      0.725950    7.861269   -2.589825
N       1.150969    4.781678    0.303458
N       1.630944    3.647108   -0.066015
C       0.733600    4.944597    1.659967
C       1.974579    3.672711   -1.414007
C       2.581126    3.695876   -4.063139
C       0.172960    6.167639    2.015598
C       2.088926    4.853559   -3.491361
H       1.973330    5.619729   -4.006707
C       0.483481    4.164170    3.897036
H       0.570551    3.487870    4.529506
S      -0.110952    7.418667    0.773232
C       1.765890    4.863039   -2.134852
C      -0.051800    5.389379    4.269703
H      -0.296315    5.538083    5.154522
C       0.886501    3.938518    2.599089
H       1.256005    3.120400    2.356323
C      -0.221031    6.389656    3.329517
H      -0.595531    7.204257    3.575477
C       0.904101    8.793397    1.373545
H       0.577571    9.083030    2.228551
H       0.857231    9.521346    0.749594
H       1.815601    8.504027    1.459791
