27
2217013
Zn      0.451501    2.761675   -0.652756
S       1.844869    6.588141   -2.966276
S      -4.188721    2.761675   -1.377147
N       1.174376    4.370075   -1.450975
N      -1.478531    2.761675   -0.812839
N       0.927673    2.761675    1.338406
H       0.130111    2.761675    1.776257
N       3.783350    2.761675    1.785760
H       4.611328    2.761675    1.435625
H       3.861079    2.761675    2.682660
C       1.471772    5.291369   -2.046716
C      -2.598835    2.761675   -1.035054
C       1.635678    1.569736    1.824501
H       1.177756    0.775478    1.507991
H       1.615401    1.559794    2.793767
C       3.070276    1.532177    1.357411
H       3.512990    0.753385    1.729475
H       3.097312    1.461478    0.390338
C       1.635678    3.953614    1.824501
H       1.177756    4.747872    1.507991
H       1.615401    3.963556    2.793767
C       3.070276    3.991173    1.357411
H       3.512990    4.769965    1.729475
H       3.097312    4.061872    0.390338
S       1.844869   -1.064791   -2.966276
N       1.174376    1.153275   -1.450975
C       1.471772    0.231981   -2.046716
