30
2217377
Cu      1.808417   10.155500    5.962866
O       2.956500   10.655963    4.491350
O       3.721391    9.794980    2.581683
O       1.809139    8.402661    5.162292
O       2.641467    7.378580    3.359002
C       3.109458    9.706830    3.630193
C       2.471999    8.361632    4.054749
O       0.660333    9.655037    7.434382
O      -0.104558   10.516020    9.344050
O       1.807695   11.908339    6.763440
O       0.975366   12.932420    8.566730
C       0.507376   10.604170    8.295539
C       1.144835   11.949368    7.870983
O       4.201318   13.222258    4.498386
H       3.843472   12.470954    4.329041
H       4.664263   13.039662    5.175768
N       4.229468    7.565644    0.867001
N       5.711336    5.591212   -2.379184
C       4.260322    6.229384    0.859845
H       3.948008    5.762231    1.601626
C       4.735087    5.541450   -0.203930
H       4.742033    4.610597   -0.190812
C       5.219986    6.235274   -1.329719
C       5.148510    7.645670   -1.299905
H       5.436611    8.146742   -2.029760
C       4.656386    8.262312   -0.199160
H       4.613195    9.190727   -0.180079
H       3.950450    7.951757    1.574197
H       5.818151    4.746681   -2.373221
H       6.038418    6.050647   -3.017210
