30
2218936
Br      2.115326   10.942250    7.609356
Zn      0.988242    8.880865    7.346009
Br      1.577449    7.344423    8.998249
C       0.865360    6.878286    3.605371
N       0.887066    8.052087    5.515898
N      -1.031455    9.211886    7.004378
H      -1.200976   10.092820    7.158818
N      -0.361028    7.468687    3.811734
H      -1.043529    7.417348    3.289834
C       2.653955    5.648479    2.725330
H       3.015907    5.089582    2.075618
C      -0.302534    8.140764    4.972696
C       1.653185    7.260996    4.673136
C       1.341945    6.040524    2.598849
H       0.807421    5.765159    1.889225
C      -2.751900    8.144264    5.641047
H      -3.377430    8.498971    4.990003
H      -2.618617    7.199156    5.467968
C       2.975814    6.846782    4.768995
H       3.509276    7.105812    5.485276
C       3.464331    6.053358    3.786438
H       4.350735    5.774493    3.819722
C      -1.960485    8.411461    7.845808
H      -2.103016    8.836176    8.705878
H      -1.614078    7.516526    7.990929
C      -1.408638    8.910852    5.593118
H      -1.532415    9.750948    5.104502
C      -3.244714    8.370623    7.042988
H      -3.818817    7.646040    7.335891
H      -3.729091    9.208386    7.114882
