27
2218227
Br      4.121406    5.264353    3.184432
Br      5.056307    1.817148    4.766850
C       2.631504    1.442066    1.514136
C       0.723631    1.605529    0.297010
H       0.226940    1.380866   -0.456231
C       0.152677    2.489409    1.223251
H      -0.710291    2.823100    1.128330
C       0.959873    2.823053    2.275032
H       0.640091    3.423060    2.910387
C       1.493099    2.492721    6.237200
C       0.606391    4.008792    7.697752
H       0.199308    4.203986    8.510701
C       0.904169    5.038811    6.871025
H       0.661838    5.912526    7.076176
C       1.578852    4.733214    5.721261
H       1.810499    5.420688    5.139490
N       2.198575    2.317748    2.431191
N       1.901736    1.082254    0.427143
N       3.842689    0.919697    1.630490
H       4.088894    1.013934    2.333209
H       4.361625    1.141221    0.929303
N       1.920790    3.463389    5.404349
N       0.859666    2.733577    7.416052
N       1.727644    1.211796    5.950907
H       1.950509    1.151681    5.237472
H       0.972701    0.750129    6.047359
Zn      3.322855    3.179520    3.927109
