30
2219906
C       3.653323   10.393456   -0.548344
C       2.849194   11.388684   -1.077176
H       2.880737   11.589955   -1.984624
C       2.783679   10.744867    1.543596
H       2.753753   10.522344    2.447034
C       1.964427   11.744971    1.081186
H       1.391837   12.191268    1.661203
C       2.003250   12.073756   -0.237888
H       1.463012   12.755076   -0.567990
C       4.584346    9.607249   -1.415965
H       4.173104    9.422230   -2.274633
H       5.407240   10.099800   -1.564979
C       5.725317    7.494529   -1.326156
H       6.534623    7.947076   -1.610419
H       5.309384    7.091987   -2.104904
C       6.050832    6.443170   -0.315134
C       6.720146    5.283049   -0.671431
H       6.962447    5.134284   -1.556961
C       7.022289    4.357953    0.292682
H       7.481654    3.579122    0.072168
C       6.635707    4.595478    1.589035
H       6.821716    3.977914    2.258595
C       5.969467    5.762599    1.880113
H       5.708888    5.920616    2.758426
Cl      3.764514    7.998082    3.370519
Cl      6.825437    9.717886    1.931567
N       3.622830   10.077423    0.742263
N       5.679859    6.685445    0.944734
O       4.845244    8.407499   -0.725824
Zn      4.918591    8.579017    1.491608
