29
2219449
Zn      0.563525    6.889992    2.652901
Se     -0.034178    3.658792    3.106193
Se     -1.049883    9.639627    3.570978
Cl      0.812282    5.900011    0.677987
Cl      2.081193    8.267738    3.497275
N       0.304955    5.257199    3.867584
N       0.341006    2.780982    4.603564
N      -1.116204    8.086020    2.647629
N      -2.363665   10.355584    2.610725
C       0.643517    5.053164    5.136042
C       0.951813    6.068271    6.092394
H       0.920161    6.968525    5.863587
C       1.290868    5.680003    7.336601
H       1.482210    6.334379    7.969248
C       1.369276    4.305157    7.728842
H       1.625729    4.089120    8.596624
C       1.076392    3.313085    6.855789
H       1.128526    2.421286    7.114120
C       0.687512    3.663288    5.535665
C      -2.097786    8.174868    1.747161
C      -2.502035    7.145663    0.845639
H      -2.092321    6.311326    0.855128
C      -3.498937    7.421598   -0.021088
H      -3.792078    6.750794   -0.594689
C      -4.119060    8.702970   -0.090679
H      -4.782213    8.851604   -0.724381
C      -3.770532    9.703315    0.738089
H      -4.180718   10.535559    0.673769
C      -2.761503    9.464797    1.715529
