26
2219887
Hg      7.084940    0.955777    2.314084
Cl      6.638458   -0.112825    4.459647
Cl      6.778375   -0.560729    0.449759
N       5.859137    3.008120    2.452727
N       8.456303    2.689690    1.689955
C       3.800557    1.832998    2.984691
H       3.656867    1.411117    2.134181
H       2.954163    2.038280    3.387024
H       4.291522    1.239779    3.556968
C       4.567732    3.076009    2.793405
C       3.972426    4.341650    2.979949
H       3.073760    4.404690    3.207595
C       4.720128    5.471514    2.824233
H       4.333778    6.303960    2.975206
C       6.045158    5.390694    2.444823
H       6.551680    6.160100    2.311239
C       6.609598    4.110505    2.266974
C       8.026816    3.927852    1.839348
C       8.857464    5.033470    1.584036
H       8.536754    5.896627    1.723944
C      10.166476    4.841118    1.120050
H      10.733980    5.555567    0.941411
C      10.585118    3.468794    0.935087
H      11.439284    3.279676    0.619703
C       9.711815    2.445613    1.227549
H       9.987623    1.566292    1.105822
