29
2219738
Cd      6.016154   11.908697   10.020926
C       4.666969    9.558793    8.254662
C       6.791283    9.881948    7.679906
C       3.439020   13.713643    9.480301
C       4.744703    8.701443    7.235834
H       4.043988    8.160653    6.952897
C       4.957450   14.073730    7.885448
C       3.970825   14.870406    7.451526
H       4.025856   15.388773    6.682648
C       6.270580   13.828396    7.237103
H       6.319884   14.324340    6.416205
H       6.365040   12.891906    7.050593
H       6.974991   14.110662    7.824547
C       3.468483    9.823912    9.098399
H       2.767219    9.213215    8.859869
H       3.169688   10.726108    8.955027
H       3.695417    9.706521   10.023337
Cl      8.354745   12.513617   10.131691
Cl      5.092067   11.374396   12.213500
N       4.643384   13.414230    9.070486
N       5.856416   10.247311    8.517299
N       2.877243   13.237484   10.582868
H       3.310887   12.688780   11.082766
H       2.078337   13.474904   10.796022
N       8.035878   10.375254    7.671025
H       8.264365   10.975399    8.243243
H       8.606559   10.091669    7.093731
S       2.613654   14.825956    8.460077
S       6.292870    8.721492    6.514154
