28
2219819
C       5.124959    2.454443    0.711752
H       4.814074    2.829271    1.504080
C       4.519040    2.628613   -0.529562
H       3.753967    3.123033   -0.717721
C       5.281172    1.923101   -1.413805
H       5.137574    1.839628   -2.329235
C       7.313823    0.488802   -1.104037
C       7.461144    0.020868   -2.389667
H       6.904459    0.310618   -3.076799
C       8.462899   -0.891722   -2.619158
H       8.587960   -1.230432   -3.476693
C       9.287895   -1.313905   -1.590475
H       9.957613   -1.944772   -1.730886
C       9.072040   -0.757683   -0.353489
C      10.878139   -1.934338    0.943780
H      11.249072   -2.478521    0.286491
C      11.267331   -1.857286    2.229709
H      11.956942   -2.330035    2.636616
C      10.424060   -0.924630    2.824776
H      10.466983   -0.671801    3.718420
Cl      6.945632    0.485832    3.757813
Cl      9.059286    3.001194    1.813700
N       8.119196    0.130106   -0.105942
N       9.842488   -1.070387    0.782331
N       9.552839   -0.444657    1.952320
N       6.293837    1.363668   -0.694593
N       6.196044    1.689536    0.622074
Zn      7.927411    1.049278    1.816759
