29
2219615
Hg      1.798488   10.706227    8.463137
I       0.121763   12.190168    7.029512
I       3.779171   11.449704   10.089214
N       2.549512    8.756010    7.329789
N       0.581758    8.792167    9.213548
C       3.564206    8.787648    6.463822
H       3.958057    9.607206    6.269823
C       4.054265    7.656236    5.841057
C       5.238826    7.767720    4.893555
H       5.991955    8.133809    5.364495
H       5.010332    8.343219    4.159733
H       5.464314    6.896940    4.558977
C       3.455972    6.446485    6.172824
H       3.767145    5.657058    5.793261
C       2.411213    6.413341    7.055660
H       1.990303    5.608848    7.256688
C       1.987297    7.598988    7.647498
C       0.880905    7.618573    8.654043
C       0.210455    6.464563    9.013925
H       0.405878    5.655551    8.600623
C      -0.756135    6.539890    9.999384
H      -1.210116    5.768542   10.258050
C      -1.056785    7.736083   10.602468
C      -2.059452    7.843047   11.720071
H      -2.752451    8.459222   11.469841
H      -1.620503    8.160927   12.512937
H      -2.442781    6.979800   11.890172
C      -0.366793    8.847909   10.158239
H      -0.569732    9.675000   10.532179
