29
2219610
Hg      3.155228    2.555872    2.894360
I       1.174725    4.263851    3.417496
I       5.789305    2.606543    3.429993
N       3.524082    2.298743    0.494105
N       2.069338    0.611777    1.992762
C       4.214377    3.198690   -0.223020
H       4.602321    3.919077    0.218214
C       4.369287    3.095096   -1.592864
H       4.862775    3.730969   -2.058130
C       3.788823    2.041855   -2.263847
C       3.910327    1.919310   -3.750008
H       3.037880    1.923168   -4.146061
H       4.358256    1.096868   -3.967260
H       4.421076    2.658687   -4.091267
C       3.085334    1.109253   -1.513077
H       2.693439    0.377780   -1.931240
C       2.967147    1.266935   -0.143233
C       2.169626    0.313029    0.693093
C       1.573102   -0.819177    0.170149
H       1.679866   -1.017983   -0.732506
C       0.821199   -1.658342    0.964178
C       0.188872   -2.892670    0.377789
H       0.873736   -3.469945    0.032684
H      -0.405395   -2.640142   -0.332608
H      -0.305082   -3.353252    1.060307
C       0.655447   -1.305375    2.301338
H       0.127993   -1.822652    2.865617
C       1.279044   -0.192579    2.763720
H       1.162025    0.037072    3.657724
