27
2219152
I       3.053051    8.114335    6.398692
I       7.147085    8.145534    7.697484
Br      6.961979    7.114186   -0.485846
Zn      5.179893    6.820752    6.791277
N       5.042112    5.024455    7.793597
N       5.819158    5.522827    5.277762
C       5.588149    4.000979    7.097570
C       5.693325    2.718476    7.610877
H       6.084692    2.020133    7.099683
C       5.212733    2.477431    8.894143
H       5.281255    1.612128    9.279651
C       4.629792    3.518742    9.600731
H       4.276314    3.370426   10.469973
C       4.568346    4.785755    9.022998
H       4.181201    5.499845    9.516237
C       6.023788    4.333800    5.730866
H       6.450036    3.679913    5.189042
C       6.113634    5.848493    3.923731
C       6.347905    4.885277    2.946759
H       6.318491    3.963480    3.173839
C       6.625518    5.268969    1.637088
H       6.810172    4.615916    0.971691
C       6.628191    6.618831    1.320233
C       6.372236    7.589683    2.266575
H       6.375056    8.509810    2.028933
C       6.112384    7.201038    3.569909
H       5.931767    7.859170    4.231081
