25
2220237
Hg      0.787172   -1.563565    7.521176
Br     -1.112875   -0.423367    6.341460
Br      3.126118   -0.538922    7.436822
N      -0.051025   -2.833187    9.247020
N       1.112963   -4.854326    8.794648
H       1.439641   -5.527332    9.220410
N       1.411699   -3.690064    6.742120
C      -0.908216   -2.157045   10.084352
H      -1.172846   -1.298758    9.842200
C      -1.391509   -2.673753   11.245441
H      -1.967966   -2.183650   11.786513
C      -0.993569   -3.966299   11.602016
H      -1.295809   -4.342071   12.397659
C      -0.161513   -4.679874   10.783312
H       0.102781   -5.543310   11.005063
C       0.284747   -4.069484    9.592952
C       1.534144   -4.805916    7.477446
C       2.107518   -5.977455    6.948792
H       2.206053   -6.733131    7.483655
C       2.520026   -5.999285    5.636912
H       2.883857   -6.774021    5.272354
C       2.388861   -4.854205    4.861671
H       2.662159   -4.836599    3.972892
C       1.832404   -3.740286    5.468382
H       1.743057   -2.969877    4.955693
