30
2220257
Re      3.358548    1.980600    7.017202
Br      3.911773   -0.518400    2.656366
O       1.831252    0.516056    7.194168
C       2.710709   -0.250099    5.175815
C       4.685201    3.291783    6.658611
C       0.641472   -2.612689    5.750491
H       0.009387   -3.201807    6.094180
C       2.954151    3.044262    8.535391
C       1.773351   -0.402049    6.307471
O       3.501538    0.763790    5.254984
C       0.833995   -1.448643    6.463016
C       2.747171   -1.087896    4.045090
C       2.170944   -2.308220    3.797336
H       2.415705   -2.711936    2.996328
C       1.278743   -3.016798    4.572265
Br      0.822234   -4.748330    3.938444
Br     -0.272560   -1.294358    7.994152
O       5.516202    4.096864    6.482575
O       2.688886    3.694569    9.460276
O       5.466163    0.483877    8.635983
C       4.647918    1.055393    8.028707
O       1.797445    2.855590    5.789610
H       0.991409    3.047626    6.342865
H       1.998856    3.804133    5.355576
O      -0.250857    3.070134    7.481041
H      -0.490405    2.388593    7.869437
C      -0.495319    4.255911    8.358424
H      -0.158796    4.076747    9.239533
H      -1.438548    4.430519    8.404994
H      -0.046028    5.021646    7.994245
