30
2220470
Zr     -1.039284    3.196132    2.539842
Br      0.726107    4.895692    3.410703
Si     -1.039284   -0.164109    2.539842
C      -0.433506    1.127048    1.315638
C      -1.262548    1.888513    0.450060
H      -2.128079    1.663305    0.196076
C      -0.558359    3.046868    0.033526
H      -0.871416    3.694214   -0.555717
C       0.689112    3.043839    0.668486
H       1.351916    3.690175    0.576036
C       0.761237    1.879424    1.477172
H       1.476672    1.646137    2.024762
C       0.378212   -1.146236    3.218488
H       0.047359   -1.792572    3.847353
H       0.993912   -0.556455    3.660420
H       0.826928   -1.598672    2.501236
C      -1.645062    1.127048    3.764046
C      -0.816019    1.888513    4.629624
H       0.049512    1.663305    4.883608
C      -1.520209    3.046868    5.046158
H      -1.207152    3.694214    5.635401
C      -2.767679    3.043839    4.411198
H      -3.430484    3.690175    4.503648
C      -2.839805    1.879424    3.602512
H      -3.555239    1.646137    3.054922
C      -2.456779   -1.146236    1.861196
H      -2.125926   -1.792572    1.232331
H      -3.072480   -0.556455    1.419264
H      -2.905495   -1.598672    2.578448
Br     -2.804675    4.895692    1.668981
