23
2220356
Zn      8.510805    0.828414    8.235067
O       8.147110    0.542358   10.276791
O      10.230631    1.810399    8.691994
O       9.201337   -1.139186    8.011294
O       9.071336    0.790109    6.209728
O      10.205631   -0.356106    4.690975
O       6.485722    0.176881    7.902347
O       7.444697    2.588208    8.083717
O       5.475470    3.570427    7.792649
C       9.729753   -1.451950    6.720941
H       9.225298   -2.182904    6.331684
H      10.652850   -1.738358    6.809500
C       9.661137   -0.247751    5.807838
C       5.520156    1.201856    7.785645
H       4.859570    1.110487    8.489360
H       5.066418    1.128644    6.932081
C       6.199119    2.555995    7.891715
H       8.596400   -1.678030    8.189161
H       6.199543   -0.613814    7.871451
H      10.990846    1.554448    8.404303
H      10.377576    2.283059    9.460001
H       7.311301    0.522444   10.540715
H       8.528733    1.030246   10.934725
