18
2222297
Pd      0.874178    1.857825    8.304865
Br      2.445071    1.857825   10.153415
Br     -1.092595    1.857825    9.731028
C       2.251787    1.163742    6.785589
H       3.046610    0.627202    6.987498
C      -0.085479    1.163742    6.486330
H      -0.904542    0.627202    6.482725
C       1.191597    0.740901    5.770635
H       1.233699   -0.179094    5.436223
C       1.337038    1.857825    4.750273
H       2.203307    1.857825    4.314005
H       0.627694    1.857825    4.088660
C       2.251787    2.551908    6.785589
H       3.046610    3.088448    6.987498
C      -0.085479    2.551908    6.486330
H      -0.904542    3.088448    6.482725
C       1.191597    2.974749    5.770635
H       1.233699    3.894744    5.436223
