27
2222786
Zn      7.077025    6.982434    6.867518
Br      5.148074    5.689137    6.667257
Br      8.935216    5.803038    7.693343
Br      8.952313    6.078366   -0.331606
N       6.968131    8.843009    7.750023
N       7.687500    8.163686    5.249644
C       7.491304    9.814125    6.954210
C       7.597758   11.130036    7.361005
H       7.977187   11.770064    6.802577
C       7.125751   11.477028    8.625312
H       7.172146   12.358509    8.920212
C       6.590775   10.501478    9.430536
H       6.275836   10.712372   10.279682
C       6.527077    9.187760    8.958905
H       6.164703    8.530311    9.508967
C       7.913933    9.379351    5.619838
H       8.341159    9.973178    5.044678
C       8.003977    7.712150    3.938279
C       8.374386    8.576491    2.911356
H       8.425228    9.490329    3.075539
C       8.668123    8.090513    1.652278
H       8.930741    8.670195    0.973589
C       8.565287    6.726285    1.409665
C       8.153570    5.843837    2.401032
H       8.065612    4.936216    2.222210
C       7.875919    6.352435    3.674751
H       7.601523    5.776270    4.350303
