16
2222450
Hg      0.736235   11.778734    3.176345
O      -1.568180   12.244473    5.227988
H      -2.269493   12.320592    5.646352
O       1.925160   13.945636    1.825020
Cl      1.820824    9.877716    2.508105
C       1.271955   14.874991    2.292176
H       1.483300   15.733538    2.001501
C       0.207110   14.745766    3.251402
C      -0.392884   15.928260    3.710252
H      -0.127174   16.746092    3.358328
C      -1.374544   15.885775    4.680897
H      -1.775000   16.675284    4.970533
C      -1.776990   14.650175    5.235255
H      -2.424523   14.616541    5.899654
C      -1.175382   13.472992    4.766023
C      -0.177624   13.515477    3.782921
