29
2223789
C      -0.188706    1.951559    6.505918
H       0.389803    1.398674    5.974931
H      -1.069767    1.568338    6.523175
H       0.154367    2.007270    7.400632
C      -0.252910    3.322378    5.909885
C       0.040810    4.458536    6.674507
H       0.283225    4.382567    7.569220
C      -0.042165    5.711181    6.058562
H       0.156988    6.482688    6.537778
C      -0.422225    5.792214    4.735077
H      -0.497962    6.619432    4.315597
C      -0.685682    4.630733    4.042139
N      -0.584428    3.422826    4.630207
Zn     -0.897932    1.868331    3.318669
I       1.286754    0.620160    2.903437
C      -1.607157    1.951559    0.131419
H      -2.185667    1.398674    0.662406
H      -0.726097    1.568338    0.114162
H      -1.950230    2.007270   -0.763294
C      -1.542953    3.322378    0.727452
C      -1.836673    4.458536   -0.037169
H      -2.079089    4.382567   -0.931882
C      -1.753698    5.711181    0.578776
H      -1.952851    6.482688    0.099560
C      -1.373638    5.792214    1.902261
H      -1.297901    6.619432    2.321741
C      -1.110181    4.630733    2.595199
N      -1.211435    3.422826    2.007131
I      -3.082617    0.620160    3.733901
