23
2223570
Pd     -0.137008    2.614499    3.567893
N       1.137320    2.752194    1.912089
N       0.842017    0.811632    3.884781
C       3.015441    1.405518    1.123869
C       2.733098   -0.287706    2.838650
C       3.614280    0.104169    1.663124
O       4.594156   -0.479453    1.279976
C       1.801276    0.713279    2.978504
C       1.960517    1.713921    1.961730
C       2.679506   -1.341032    3.731950
C       2.403028    3.379948   -0.020159
C       0.783747   -0.212444    4.762583
C       1.367981    3.597182    0.875660
C       3.260029    2.286939    0.080636
C       1.674606   -1.277743    4.692026
Cl     -1.415849    2.293781    5.412209
Cl     -1.110906    4.615100    3.143431
H       0.085699   -0.167629    5.405153
H       3.308959   -2.103915    3.716830
H       3.941042    2.204835   -0.478778
H       1.592020   -1.967075    5.291759
H       2.497940    3.999149   -0.692968
H       0.798354    4.349802    0.806363
