25
2224716
Pt      6.427121    6.060037    2.764718
I       6.689724    8.627097    2.912745
I       4.244729    6.421689    1.442060
N       6.361008    4.002003    2.700188
N       8.072288    5.638696    3.893506
C       5.512307    3.210575    2.075183
H       4.810724    3.598213    1.565661
C       5.612787    1.810772    2.138874
H       4.996022    1.272386    1.656647
C       6.577618    1.222136    2.879360
H       6.630873    0.274577    2.936052
C       7.504310    2.031510    3.567355
C       8.571914    1.545168    4.386230
H       8.676642    0.606582    4.492614
C       9.425921    2.363515    5.007736
H      10.120635    1.999207    5.543854
C       9.308673    3.786648    4.874056
C      10.189685    4.705494    5.476664
H      10.908104    4.402203    6.019081
C       9.992244    6.028129    5.268096
H      10.583373    6.654451    5.669835
C       8.961143    6.485757    4.491214
H       8.861168    7.420754    4.364534
C       8.285465    4.296320    4.085976
C       7.350392    3.436697    3.441375
