26
2224723
Pt      1.030683    1.059125    4.898091
Br     -0.942769    1.174320    3.465912
C       0.708710   -1.126229    5.384791
H       0.079535   -1.574707    4.781969
C       0.116461   -0.417163    6.346769
H      -0.862808   -0.450715    6.353115
C       0.774042   -0.178944    7.692015
H       0.065332   -0.043618    8.344333
H       1.237046   -0.992021    7.942028
C       1.683008    0.895838    7.813849
H       2.386747    0.629659    8.426824
H       1.217873    1.646285    8.216153
C       2.310763    1.357738    6.558709
H       2.657306    2.272589    6.615818
C       2.978285    0.589397    5.644957
H       3.705458    1.059125    5.185543
C       3.192034   -0.862286    5.779481
H       3.444131   -1.038994    6.699579
H       3.949743   -1.101624    5.223616
C       2.069319   -1.774901    5.434286
H       2.044464   -2.492914    6.085335
H       2.251822   -2.173051    4.568760
C       1.669516    2.850802    3.894868
H       2.628901    2.873170    3.859333
H       1.349247    3.618024    4.374588
H       1.316581    2.860867    3.001422
