25
2224687
Pd      5.864559    5.883202    2.677581
Cl      6.162667    8.147251    2.867248
Cl      3.981115    6.179385    1.422330
N       5.762393    3.851403    2.604411
N       7.488407    5.457440    3.828930
C       4.915336    3.074952    1.942528
H       4.253735    3.479461    1.393583
C       4.962524    1.684882    2.024665
H       4.340400    1.158678    1.535952
C       5.904645    1.078119    2.807699
H       5.929703    0.130266    2.876146
C       6.831074    1.859712    3.509282
C       7.874707    1.345506    4.359395
H       7.950784    0.407937    4.490813
C       8.737588    2.164807    4.965151
H       9.423225    1.791151    5.505883
C       8.665595    3.580588    4.830310
C       9.552744    4.501017    5.416217
H      10.270357    4.190779    5.956265
C       9.387170    5.836238    5.210876
H       9.977735    6.458427    5.619505
C       8.347653    6.288739    4.398409
H       8.254010    7.221166    4.248510
C       7.644846    4.125646    4.035640
C       6.715562    3.260066    3.372388
