23
2224323
Pd     -0.702370   -1.869251    1.788745
I       0.521417   -3.724448    3.080361
N       0.227232   -0.272216    2.734633
C       1.184331   -0.333145    3.671935
H       1.499961   -1.167483    3.934522
C       1.715608    0.788149    4.258643
H       2.368990    0.712479    4.916185
C       1.269576    2.014597    3.862973
H       1.607571    2.788005    4.252919
C       0.315548    2.091249    2.882741
H       0.009752    2.920674    2.595111
C      -0.192222    0.937524    2.323937
N      -1.631973   -0.272216    0.842856
C      -2.589072   -0.333145   -0.094446
H      -2.904701   -1.167483   -0.357033
C      -3.120349    0.788149   -0.681154
H      -3.773730    0.712479   -1.338696
C      -2.674316    2.014596   -0.285484
H      -3.012311    2.788005   -0.675430
C      -1.720289    2.091249    0.694748
H      -1.414492    2.920674    0.982378
C      -1.212519    0.937524    1.253552
I      -1.926157   -3.724448    0.497128
