28
2224049
Pd      2.968906    2.576966    2.544005
Br      2.551416    4.803590    1.698205
Br      5.092925    3.340248    3.373025
N       3.175690    0.664406    3.227536
N       1.167205    1.808750    1.935094
C       4.253267    0.170117    3.846980
H       5.014041    0.724407    3.982651
C       4.271729   -1.166545    4.301299
H       5.031969   -1.513363    4.752940
C       3.182876   -1.947352    4.080834
H       3.185107   -2.859900    4.346820
C       2.079240   -1.408424    3.470315
H       1.305080   -1.947835    3.356066
C       2.061547   -0.104160    3.015104
C       0.963696    0.510623    2.326932
C      -0.219793   -0.127222    2.060053
H      -0.353543   -1.031322    2.319792
C      -1.238763    0.587422    1.391518
H      -2.075941    0.182111    1.214789
C      -0.991026    1.857359    1.007712
H      -1.660062    2.344618    0.538220
C       0.212221    2.449645    1.293335
H       0.361175    3.347432    1.020208
C       6.238126    6.056206    1.147846
H       5.545190    5.751593    1.786034
H       6.259020    5.419354    0.390053
Cl      5.824067    7.663706    0.554286
Cl      7.803396    6.066261    1.946697
