25
2225370
Pt      1.718317    1.736250    8.527160
Cl      2.747693    1.736250   10.577583
S       3.707995    1.736250    7.583743
O      -0.070524    1.736250    9.465051
O      -2.272440    1.736250    9.087164
O       3.814173    1.736250    6.114454
N       0.505422    1.736250    6.898671
C       0.863919    1.736250    5.594351
H       1.784649    1.736250    5.360305
C      -0.099909    1.736250    4.593154
H       0.166515    1.736250    3.681350
C      -1.422234    1.736250    4.912530
H      -2.088294    1.736250    4.234771
C      -1.768977    1.736250    6.234728
H      -2.687748    1.736250    6.475275
C      -0.803190    1.736250    7.235925
C      -1.116630    1.736250    8.680021
C       4.646748    0.352112    8.184299
H       4.202055   -0.481983    7.927498
H       4.711395    0.400727    9.161116
H       5.547888    0.374336    7.795847
C       4.646748    3.120389    8.184299
H       4.202055    3.954483    7.927498
H       4.711395    3.071774    9.161116
H       5.547888    3.098165    7.795847
