29
2225897
Zn      3.387774    3.533258    2.460771
Cl      1.604045    2.181305    2.643180
Cl      5.050756    2.641567    1.329648
N       2.774800    5.455285    2.058784
N       3.780276    4.365475    4.314985
C       1.806916    7.292819    0.891401
H       1.469587    7.641470    0.098709
C       1.838217    8.066967    2.022524
C       2.355637    7.522870    3.196957
C       2.279838    5.992800    0.931690
H       2.253485    5.476902    0.158136
C       5.287303    1.615706    6.254916
N       5.832249    1.407625    8.594718
H       6.081382    0.594208    8.468814
H       5.874201    1.753319    9.381367
C       4.950446    3.477666    7.739577
H       5.024175    3.857911    8.585653
C       2.817365    6.218189    3.178827
C       5.367301    2.152599    7.542159
C       3.393969    5.585177    4.375419
H       3.477746    6.065473    5.168112
C       4.436236    4.223068    6.707163
H       4.162326    5.098838    6.861270
C       4.767600    2.379072    5.215452
H       4.717248    2.013217    4.361318
C       4.321991    3.675358    5.428985
H       5.465426    0.786868    6.053469
H       2.537757    8.069949    4.059148
H       1.339781    8.917343    1.974176
