29
2226940
C       2.081550    0.536151    4.757862
H       2.711540    1.226786    4.978848
H       1.252949    0.935992    4.483626
H       2.431738    0.002019    4.041653
C       1.848165   -0.326133    5.952075
C       2.109162   -1.675092    5.939118
H       2.434999   -2.079982    5.168772
C       1.887812   -2.416212    7.059137
H       2.074764   -3.327971    7.060912
C       1.380356   -1.802314    8.202231
H       1.224826   -2.298077    8.972577
C       1.111023   -0.446287    8.173476
C       0.553768    0.284735    9.339467
C       0.262124   -0.346327   10.545041
H       0.443588   -1.251018   10.658818
C      -0.298308    0.384696   11.565660
H      -0.504780   -0.026252   12.373458
C      -0.548546    1.706393   11.391356
H      -0.930785    2.204175   12.077035
C      -0.229050    2.315242   10.178150
C      -0.472714    3.754065    9.918647
H      -1.078552    3.847967    9.180251
H       0.358203    4.186216    9.707423
H      -0.855183    4.159964   10.699642
N       1.356759    0.271609    7.054700
N       0.308433    1.598355    9.174571
Cd      0.840693    2.478460    7.145366
Cl      2.739669    3.922685    6.974825
Cl     -1.010528    3.166924    5.802266
