23
2226939
Hg      6.592914    5.629455    3.365941
I       7.676042    3.555077    2.101313
I       5.989628    6.196828    5.892851
S       7.961392   10.220903    2.335174
S       3.125035    6.724376    0.033473
N       7.166646    7.827025    2.600117
N       4.963609    6.379613    1.758815
C       8.113939    8.638409    2.994617
C       6.551035    9.751460    1.506275
H       6.037380   10.325075    0.951882
C       6.258071    8.443736    1.746860
C       5.145582    7.653157    1.226837
C       4.242169    7.991977    0.282426
H       4.230554    8.821193   -0.180813
C       3.944043    5.776276    1.211894
C       9.219975    8.247578    3.889715
H       8.853447    7.950368    4.748949
H       9.811065    9.014379    4.034664
H       9.727177    7.514955    3.481766
C       3.502661    4.397222    1.564553
H       3.334885    4.343724    2.528389
H       4.203452    3.756734    1.317990
H       2.679265    4.183231    1.077405
