23
2226092
W       1.134201    2.630263    8.667516
S       1.931955    4.524122    7.077233
O       0.286302    0.085597   10.258145
O       3.862330    2.528636   10.303081
O      -1.710724    2.588645    7.281981
O       2.204094    0.686527    6.400539
O      -0.138494    4.386663   10.979430
N       3.197584    5.797479    9.116303
H       2.598734    5.567949    9.688952
N       4.218098    5.881255    7.237045
H       4.377631    5.752561    6.401691
C       0.589264    1.029434    9.678582
C       2.913788    2.599082    9.685496
C      -0.693407    2.652938    7.741714
C       1.835887    1.377485    7.215153
C       0.339276    3.819171   10.142924
C       3.167302    5.428612    7.841956
C       4.323883    6.614938    9.443531
H       4.849152    6.222504   10.157903
H       4.048061    7.507621    9.703931
C       5.108346    6.637176    8.123096
H       5.239869    7.543254    7.803933
H       5.969956    6.201540    8.215273
