27
2226890
Zn     -1.304291    1.416045    3.535574
Br     -2.072016   -0.747052    4.034030
Br     -0.186777    1.723912    1.477729
N      -2.694338    2.884223    3.809954
N      -0.409911    2.462932    5.084511
C      -3.892017    3.025123    3.207625
H      -4.177789    2.358666    2.627509
C      -4.723405    4.111462    3.423209
H      -5.545200    4.177685    2.993348
C      -4.299070    5.068173    4.259413
H      -4.821753    5.824806    4.404442
C      -3.080126    4.935727    4.919230
H      -2.795694    5.588094    5.520252
C      -2.311540    3.842343    4.681435
C      -0.999160    3.566179    5.353664
C      -0.507545    4.615884    6.323791
H      -1.182541    4.776510    6.991448
H      -0.326251    5.430286    5.853427
H       0.294127    4.307313    6.752999
C       0.804015    2.030369    5.741062
H       1.367633    2.732051    6.131072
C       0.708141    0.741134    6.500178
H      -0.133034    0.264892    6.478620
H       1.204679    0.667866    7.329849
C       1.501958    0.829901    5.219741
H       2.467054    0.805948    5.281150
H       1.130044    0.401565    4.429920
