30
2227350
Hg      1.281086    4.382484    1.019668
N       2.168985    5.570657    2.804449
C       2.969401    6.629414    2.701675
H       3.200680    6.941932    1.856962
C       3.468623    7.279403    3.819513
H       4.012023    8.028020    3.723779
C       3.159313    6.814786    5.059834
H       3.479787    7.243755    5.818668
C       2.365088    5.700179    5.168239
H       2.155856    5.354390    6.005913
C       1.880094    5.097721    4.026468
C       1.026783    3.899935    4.106715
H       0.720457    3.611183    4.937350
N       0.705648    3.260640    3.073349
C      -0.153888    2.074737    3.202872
H      -0.889604    2.137716    2.573560
H      -0.524702    2.040277    4.098268
C       0.628426    0.813972    2.935379
C       0.833201    0.361237    1.644376
H       0.490704    0.840114    0.924961
C       1.543315   -0.794959    1.423342
H       1.680651   -1.089653    0.551879
C       2.052126   -1.515057    2.469379
H       2.522672   -2.301698    2.308884
C       1.864647   -1.075393    3.750528
H       2.214190   -1.559023    4.464311
C       1.156666    0.086744    3.987048
H       1.034115    0.383814    4.859918
Cl      3.260568    3.577792   -0.126707
Cl     -0.828753    4.276857   -0.117838
