24
2227143
Cd      2.139473   -0.268386    3.314256
S       2.978190    1.276354    5.279079
C       0.130737   -0.961232    3.924609
C       1.968540    0.844187    6.615785
N      -0.894460   -1.331124    4.238801
N       0.681729    1.099075    6.603986
N       2.493623    0.280172    7.669321
H       0.363094    1.447761    5.978918
H       0.222906    0.991003    7.304620
H       3.367732    0.085642    7.662560
H       2.055112    0.053017    8.206098
S       1.300755    1.276354    1.349432
C       4.148209   -0.961232    2.703903
C       2.310406    0.844187    0.012727
N       5.173405   -1.331124    2.389711
N       3.597217    1.099075    0.024525
N       1.785322    0.280172   -1.040809
H       3.915852    1.447761    0.649594
H       4.056040    0.991003   -0.676108
H       0.911214    0.085642   -1.034048
H       2.223834    0.053017   -1.577586
O       7.437223    1.029338    3.314256
H       8.048909    1.533403    3.539625
H       6.825537    1.533403    3.088886
