27
2228667
C       4.529952   -0.524818    9.574908
H       4.014640   -1.155763    9.125639
C       5.841344   -0.846106    9.923431
C       6.366928   -2.128349    9.518341
C       6.610888    0.087227   10.616737
H       7.482296   -0.111942   10.871759
C       6.051920    1.308411   10.913834
H       6.542408    1.950986   11.374324
C       4.743952    1.573001   10.517392
H       4.375872    2.406022   10.708133
C       2.998568    2.894496    6.959235
H       3.086736    3.516718    7.643658
C       3.375208    3.247767    5.666592
C       3.842584    4.577985    5.398713
C       3.269064    2.321703    4.639724
H       3.533568    2.536864    3.775079
C       2.767448    1.083074    4.930744
H       2.680136    0.441952    4.261281
C       2.389952    0.792316    6.232035
H       2.037280   -0.047975    6.418802
N       3.994096    0.662637    9.866630
N       6.783800   -3.127102    9.143170
N       2.514072    1.681163    7.235528
N       4.195256    5.645067    5.161690
Zn      2.097885    1.078567    9.173838
Br      1.025146   -1.000062    8.981204
Br      1.130605    2.862513   10.332916
