19
2229507
Cr      6.860702    4.149832    8.151888
O       7.677008    2.267388   10.382481
C       7.395404    3.036275    9.577971
O       4.164346    2.953675    8.720396
O       5.630138    5.014289    5.498526
C       6.111825    4.736224    6.491225
C       5.203026    3.390342    8.475093
O       8.129624    1.953737    6.520767
C       7.643115    2.789552    7.128334
C       8.372781    5.519998    8.946880
H       9.050814    5.139261    9.453241
C       7.107963    5.793769    9.569218
H       7.014031    5.594741   10.448895
C       6.026159    6.200842    8.817554
H       6.161820    6.737512    8.008996
H       5.212499    6.217929    9.256298
C       8.550062    5.646623    7.593228
H       8.070359    6.259677    7.078989
H       9.299945    5.308889    7.166519
