27
2229186
Zn      1.065227    2.037820    2.646132
N       2.160919    3.164623    1.450915
N       2.268743    3.032778    0.283129
N       2.396028    2.959245   -0.848408
N       1.680521    0.353480    3.464170
N       2.698480   -0.238590    3.225323
N       3.647393   -0.838292    3.035068
S       0.421131    4.604403    6.318584
C       0.803719    3.187275    5.401989
N       0.581784    3.318369    4.113310
C       0.081638    4.582510    3.840370
H      -0.133646    4.849351    2.976286
C      -0.071179    5.385730    4.876878
H      -0.399718    6.254510    4.830832
N       1.273095    2.087553    5.978045
H       1.453980    1.395518    5.499958
H       1.396813    2.066154    6.828412
S      -2.406020    0.324999    0.259323
C      -1.148410    0.377842    1.436220
N      -0.551998    1.544908    1.523314
C      -1.129835    2.438992    0.640715
H      -0.840226    3.321081    0.577035
C      -2.119585    1.973679   -0.110705
H      -2.587348    2.468511   -0.744561
N      -0.841682   -0.679537    2.198416
H      -0.220074   -0.617910    2.789166
H      -1.267323   -1.420173    2.097508
