27
2229928
Zn      7.196504    1.671975    4.354867
N       6.121249    2.670504    5.600359
C       5.539418    3.207672    6.434751
Se      4.649604    4.043177    7.718740
N       8.323089    0.392371    5.441145
N       9.396511   -0.052808    4.807773
C      10.069919   -1.032883    5.408744
H      10.826384   -1.372445    4.987193
C       9.696514   -1.571753    6.633333
H      10.194194   -2.253149    7.025271
C       8.623644   -1.096480    7.225595
H       8.326827   -1.432067    8.040826
C       7.971303   -0.097099    6.591526
H       7.221506    0.264041    7.006110
N       8.271758    2.670504    3.109375
C       8.853590    3.207672    2.274982
Se      9.743404    4.043177    0.990993
N       6.069918    0.392371    3.268589
N       4.996496   -0.052808    3.901961
C       4.323088   -1.032883    3.300989
H       3.566623   -1.372445    3.722540
C       4.696493   -1.571753    2.076400
H       4.198814   -2.253149    1.684462
C       5.769363   -1.096480    1.484139
H       6.066181   -1.432067    0.668908
C       6.421704   -0.097099    2.118207
H       7.171501    0.264041    1.703624
