27
2229698
C       7.520690    1.530640    0.039912
Hg      5.126874    1.165139    2.078745
N       4.651044    3.157952    0.677671
C       4.884912    4.245512    1.382781
C       4.226210    3.373853   -0.587869
H       4.033283    2.637534   -1.122522
C       4.745574    5.557029    0.949570
C       4.065987    4.638645   -1.121691
H       3.786336    4.732094   -2.003078
C       4.321093    5.785819   -0.348398
H       4.211603    6.644589   -0.687649
S       7.161002    0.297589    1.120859
O       5.126874    7.666090    2.078745
C       5.126874    6.470579    2.078745
N       7.827853    2.333018   -0.690975
N       5.602704    3.157952    3.479818
C       5.368836    4.245512    2.774708
C       6.027538    3.373853    4.745358
H       6.220465    2.637534    5.280011
C       5.508174    5.557029    3.207919
C       6.187761    4.638645    5.279180
H       6.467412    4.732094    6.160567
C       5.932655    5.785819    4.505887
H       6.042145    6.644589    4.845138
C       2.733058    1.530640    4.117577
S       3.092746    0.297589    3.036630
N       2.425895    2.333018    4.848464
