27
2229930
C       2.474036    6.978962    3.816625
H       2.831173    7.680669    4.311493
C       1.243461    6.466295    4.184985
H       0.792246    6.820177    4.917055
C       0.680863    5.420880    3.459426
H      -0.141677    5.055164    3.693838
C       1.401925    4.945167    2.370158
C       0.896603    3.866856    1.551579
C       2.654436    5.494593    2.066912
H       3.137123    5.146089    1.352516
C       3.467187    9.449685   -0.226970
H       3.473811   10.025138    0.503240
C       2.792520    9.842392   -1.365539
H       2.365953   10.668346   -1.402747
C       2.762310    8.984684   -2.452016
H       2.304001    9.213983   -3.227806
C       3.433192    7.772057   -2.353415
C       3.433155    6.842206   -3.447334
C       4.097585    7.455617   -1.163684
H       4.545026    6.642589   -1.097640
Br      6.444800    5.697007    1.167405
Br      4.811916    9.811644    3.165203
Hg      5.237365    7.662241    2.017276
N       3.177317    6.502733    2.771076
N       0.509872    3.017608    0.889274
N       4.109481    8.286094   -0.119996
N       3.420643    6.098210   -4.321725
