17
2230293
W      -1.383637    8.500324    9.986235
O       0.421153    6.342915    8.601737
O      -3.221932    6.180800   11.191196
O      -3.097267    8.574379    7.326520
O       0.469313   10.751351    8.713775
O       0.494493    8.421800   12.569639
N      -2.660145   10.015703   10.910472
C      -4.225485   11.849372   11.853352
H      -5.108748   11.755373   11.439190
H      -3.858949   12.733512   11.646900
H      -4.307409   11.747199   12.825186
C      -3.339681   10.827640   11.334705
C      -0.236612    7.139867    9.129196
C      -2.575156    7.019983   10.766963
C      -2.512527    8.567568    8.308424
C      -0.222444    9.957124    9.193397
C      -0.189508    8.450409   11.659489
