25
2230805
Zn     -1.826139    5.014893    3.205586
Cl      2.305189    7.391600    6.187226
Cl     -0.699279    3.239601    3.896920
Cl      1.942851    4.959761   -1.056497
Cl     -4.031465    5.153757    3.197550
N      -1.263996    5.290933    1.202720
N      -1.006139    6.633752    4.206228
C       0.747624    7.586012    5.447151
C       0.219038    6.553404    4.751602
H       0.713058    5.772099    4.648851
C       0.308260    5.209440   -0.549326
C      -0.005375    5.118117    0.787762
H       0.663151    4.935754    1.408224
C      -1.702121    7.773479    4.349817
H      -2.554941    7.830859    3.983600
C       0.059543    8.771468    5.590740
H       0.422805    9.490211    6.055757
C      -0.663334    5.451993   -1.485946
H      -0.458280    5.466863   -2.393585
C      -2.212259    5.584766    0.304303
H      -3.080611    5.734892    0.602019
C      -1.196602    8.842858    5.012433
H      -1.693956    9.626054    5.079617
C      -1.951611    5.674053   -1.045958
H      -2.629211    5.879668   -1.647977
