28
2230535
C      -0.322466    2.553450    1.594683
H      -1.208152    2.183635    1.457032
H       0.327746    1.856413    1.412013
C      -0.107509    3.688478    0.669213
H      -0.123446    3.380436   -0.250197
H      -0.803751    4.353330    0.785221
C       1.328232    5.607673    0.578311
H       0.494867    6.092130    0.689991
H       1.590796    5.654036   -0.354085
C       2.374699    6.184266    1.434522
H       3.226229    5.764623    1.236269
H       2.456105    7.134233    1.254450
N      -0.185611    3.003702    2.984188
H      -0.179043    2.287663    3.529600
H      -0.893856    3.512837    3.202353
N       2.041583    5.978826    2.849133
H       1.361816    6.524180    3.074224
H       2.752423    6.202379    3.353856
N       3.989733    2.648743    2.914929
N       1.162066    4.390811    6.003005
O       1.169271    4.245676    0.984340
O       2.735873    2.427276    2.954753
O       4.413452    3.802177    2.993711
O       4.731714    1.696535    2.796323
O       2.074192    3.882029    5.264533
O       0.194335    4.925598    5.441143
O       1.282361    4.348958    7.210704
Zn      1.517939    4.071045    3.257587
