27
2231358
Zn      8.122489    0.281601    2.971101
Cl      6.942598   -0.929031    4.441201
N       9.980770    4.508579    5.761796
H      10.611656    4.982128    6.132352
H       9.168913    4.803314    5.775820
N      11.569110    3.057719    4.927749
N       9.548573    1.512520    3.798968
C      10.847501    1.164757    3.679649
H      11.080298    0.398324    3.206412
C      11.825758    1.935507    4.251645
H      12.711465    1.663587    4.164295
C       9.259775    2.608835    4.475666
H       8.371665    2.864724    4.575495
C      10.284659    3.403015    5.053367
Cl      9.302380   -0.929031    1.501000
N       6.264208    4.508579    0.180405
H       5.633322    4.982128   -0.190150
H       7.076065    4.803314    0.166382
N       4.675868    3.057719    1.014453
N       6.696405    1.512520    2.143233
C       5.397477    1.164757    2.262553
H       5.164680    0.398324    2.735790
C       4.419220    1.935507    1.690556
H       3.533513    1.663587    1.777907
C       6.985203    2.608835    1.466535
H       7.873313    2.864724    1.366706
C       5.960319    3.403015    0.888834
