26
2232537
Zn      4.656673    1.405786    3.954736
Cl      3.966312   -0.580689    3.222857
Cl      4.489094    2.946582    2.322237
N       3.813449    1.961394    5.705813
N       4.534262    2.638138    6.651062
N       6.598876    1.435669    4.597585
H       6.956508    0.595898    4.481212
H       7.073069    2.013602    4.061760
C       1.541009    1.011248    5.497640
H       1.201577    1.592915    4.786267
H       0.809694    0.779114    6.106763
H       1.909378    0.193000    5.102622
C       2.614307    1.725080    6.256325
C       2.571671    2.256497    7.539960
H       1.836470    2.230615    8.141880
C       3.807761    2.829715    7.770023
C       4.350023    3.527360    8.972027
H       3.635893    3.641204    9.633264
H       4.696957    4.405198    8.711035
H       5.072822    2.991942    9.360691
C       5.922634    3.022003    6.394024
H       6.293580    3.452651    7.204116
H       5.943806    3.686563    5.660478
C       6.797387    1.839279    6.016376
H       7.747990    2.077638    6.157606
H       6.584481    1.073506    6.606716
