27
2232154
Zn      5.330951    8.236864    7.614621
C       7.018827    7.085230    5.102743
H       6.725410    6.237660    5.348770
C       7.706536    7.250738    3.909606
H       7.850028    6.506109    3.371307
C       7.958343    9.444875    4.340615
H       8.282929   10.283941    4.108462
C       7.277301    9.302858    5.534677
C       7.033629   10.427191    6.503061
C       5.873219   11.101601    8.496247
H       5.624596   11.963089    8.127207
H       6.646643   11.225276    9.067843
C       4.725937   10.529825    9.295372
H       4.663871   10.984343   10.149991
H       3.893199   10.666985    8.817192
C       7.789753   11.697682    6.357849
H       7.358818   12.386821    6.867476
H       7.814515   11.951836    5.432937
H       8.686035   11.574354    6.679719
Cl      5.647571    6.049659    8.200368
Cl      3.351083    8.387468    6.492609
N       6.773303    8.120442    5.898168
N       8.166948    8.420999    3.506344
N       6.193793   10.165177    7.413175
N       4.943087    9.094180    9.510877
H       4.212775    8.719187    9.879917
H       5.642268    8.963023   10.062124
