29
2233667
Pd      3.029887    7.043031    3.276951
N       2.496557    8.926628    3.843780
N       3.110442    6.794789    5.300598
N       2.831082    7.558553    1.342607
N       3.456282    7.068111    0.449767
N       4.013587    6.661881   -0.476742
N       3.538322    5.111286    3.026891
N       3.801415    4.637870    1.982726
N       4.113308    4.093423    1.012025
C       2.228513    9.984583    3.078162
H       2.268826    9.894879    2.133095
C       1.889745   11.216638    3.631045
H       1.698083   11.952575    3.060944
C       1.833166   11.372246    4.983599
H       1.604728   12.216194    5.356652
C       2.113940   10.279324    5.825359
C       2.077871   10.315938    7.256350
H       1.843775   11.123272    7.696361
C       2.369961    9.221186    7.990977
H       2.325405    9.277937    8.939870
C       2.744091    7.981808    7.386440
C       3.095589    6.819320    8.082805
H       3.087810    6.813828    9.031698
C       3.451331    5.686123    7.390267
H       3.697451    4.897096    7.857061
C       3.448502    5.704430    5.997537
H       3.693915    4.915403    5.526917
C       2.773088    7.921396    5.982041
C       2.451294    9.070886    5.200161
