25
2234449
Pt      0.025874    8.288466    2.447314
I       1.172820   10.224936    3.735844
I      -2.037723    8.448794    3.966416
N       1.592234    8.166237    1.157690
N       0.008700    8.108453   -0.568379
H      -0.163552    8.020307   -1.466836
N      -0.885834    6.900852    1.238197
C       2.899361    8.095720    1.558614
H       3.091251    8.015410    2.484444
C       3.938104    8.137835    0.669818
H       4.835316    8.074174    0.974134
C       3.667634    8.272992   -0.671428
H       4.379761    8.329797   -1.297772
C       2.350014    8.325879   -1.107775
H       2.147202    8.438510   -2.028775
C       1.332775    8.211290   -0.165844
C      -0.797412    7.082041   -0.086947
C      -1.526030    6.316151   -0.987015
H      -1.503583    6.508113   -1.917675
C      -2.287756    5.263296   -0.497533
H      -2.784453    4.710914   -1.090064
C      -2.311462    5.034116    0.859814
H      -2.814784    4.309360    1.212434
C      -1.603655    5.856812    1.703527
H      -1.620207    5.687376    2.637407
