23
2234715
Pt     -0.188127    1.570443    3.231303
Cl      0.275239   -0.090374    4.782458
Cl     -2.422468    1.597400    3.832843
N       0.189852    3.022366    4.622056
N       1.075242    4.734842    5.578522
H       1.641442    5.536451    5.634100
C       1.034633    4.024675    4.457906
H       1.531833    4.207561    3.668175
C       0.232176    4.160058    6.496212
H       0.067749    4.458138    7.382882
C      -0.314952    3.091245    5.887435
H      -0.942278    2.490334    6.271313
Cl     -0.651492   -0.090374    1.680148
Cl      2.046215    1.597400    2.629764
N      -0.566105    3.022366    1.840550
N      -1.451495    4.734842    0.884085
H      -2.017695    5.536451    0.828506
C      -1.410886    4.024675    2.004701
H      -1.908086    4.207561    2.794431
C      -0.608429    4.160058   -0.033606
H      -0.444002    4.458138   -0.920275
C      -0.061302    3.091245    0.575172
H       0.566025    2.490334    0.191293
