18
2234303
Mo      0.079444    9.263920    3.008551
Cl      2.161014    7.881839    3.156104
O      -0.862893    6.907405    4.876585
O      -1.654643   10.791843    5.110334
O       2.073030   11.257820    4.398126
C      -0.499702    7.772170    4.231990
C      -1.040999   10.230317    4.324602
C       1.356524   10.519905    3.915111
C      -1.080979    8.402886    1.153350
H      -1.494889    7.547418    1.165050
C      -1.664887    9.612544    1.570232
H      -2.543047    9.717271    1.917530
C      -0.720734   10.647225    1.381804
H      -0.853774   11.569413    1.567768
C       0.456991   10.063224    0.865536
H       1.264944   10.516257    0.653955
C       0.209587    8.682943    0.722307
H       0.828225    8.045166    0.384245
