25
2234262
Pt      3.093433    1.905790    5.147587
Br      5.367303    2.696470    5.392128
Br      2.364570    3.568499    6.759917
N       3.688110    0.470534    3.838464
N       2.133660   -1.006888    4.816896
H       1.838250   -1.863932    4.974144
N       1.216470    1.153930    5.009088
C       4.616910    0.718405    2.874816
H       4.923930    1.609060    2.752512
C       5.116140   -0.259074    2.084544
H       5.758560   -0.053215    1.415232
C       4.683990   -1.558645    2.261952
H       5.047770   -2.261646    1.735104
C       3.722940   -1.824721    3.206784
H       3.421080   -2.712575    3.354624
C       3.196620   -0.764618    3.945984
C       1.039740   -0.172249    4.970112
C      -0.225750   -0.742212    5.139456
H      -0.332820   -1.687482    5.139456
C      -1.311930    0.079823    5.303424
H      -2.172360   -0.287082    5.471424
C      -1.140360    1.457816    5.222784
H      -1.888560    2.041783    5.273856
C       0.114810    1.959160    5.070912
H       0.229620    2.900228    5.005056
