29
2234177
Pd      3.638618    2.034720    4.838175
N       5.030964    2.040163    3.347034
N       3.549685    3.023264    1.779507
H       3.535677    3.467020    0.974487
N       2.161171    2.036674    3.423130
N       5.157729    1.996206    6.140436
N       5.180314    2.282275    7.300891
N       5.334984    2.510433    8.416504
N       2.212181    2.054117    6.265838
N       2.258569    2.506944    7.388828
N       2.194267    2.894184    8.465811
C       6.299907    1.581056    3.600168
H       6.453924    1.098227    4.404606
C       7.349195    1.783398    2.758459
H       8.211973    1.449185    2.970051
C       7.128249    2.494385    1.576263
H       7.851110    2.692540    0.993900
C       5.853327    2.903255    1.264698
H       5.676022    3.360268    0.452302
C       4.826980    2.631140    2.170661
C       2.313743    2.562065    2.209873
C       1.249038    2.697424    1.316140
H       1.379189    3.107689    0.469773
C       0.012251    2.229247    1.679147
H      -0.722963    2.300416    1.081254
C      -0.153181    1.650829    2.927345
H      -1.001570    1.324292    3.201055
C       0.930809    1.558729    3.756241
H       0.821725    1.141486    4.602609
