25
2234542
Pt     -1.394178    3.988696    6.797594
S      -4.583393    6.012678    9.631897
S      -3.461139   -0.067170    7.991408
N      -0.629998    5.810181    6.409217
N       1.150678    6.876994    5.274749
N       1.943790    4.323557    4.364144
N       0.080888    3.453314    5.558075
N      -2.794922    4.690027    7.972753
N      -2.047360    2.109919    7.135602
C      -1.087318    6.960956    6.854609
H      -1.860509    6.991578    7.406102
C      -0.418743    8.136426    6.504824
H      -0.737287    8.979999    6.803307
C       0.709989    8.048513    5.720141
H       1.181427    8.840720    5.492782
C       0.488223    5.815120    5.628032
C       0.896570    4.458884    5.152325
C       2.160432    3.076966    3.904760
H       2.895722    2.936700    3.320620
C       1.386369    2.009165    4.228894
H       1.558168    1.146824    3.867450
C       0.339128    2.222528    5.102189
H      -0.199619    1.492551    5.380851
C      -3.547898    5.229360    8.653667
C      -2.686371    1.252518    7.514536
