27
2235948
Br     -0.255741    6.446575    1.777420
Br      3.704701    6.644186    2.144458
Zn      1.757631    7.296912    0.991646
N       1.792360    9.349317    0.633439
C       2.381903    8.504321   -1.498140
F       0.521864   13.214744    4.365267
C       1.859620   11.717404    1.370643
H       2.310703   11.965371    0.596092
C       1.525760   12.674939    2.316294
H       1.738596   13.570482    2.183829
C       2.812326    8.732260   -2.792799
H       2.966725    9.597284   -3.096364
C       0.869165   12.266747    3.460643
C       2.132123    9.605868   -0.572174
H       2.220370   10.487105   -0.857342
C       0.887016   10.006430    2.759683
H       0.689246    9.109933    2.910546
C       2.776872    6.368942   -3.144199
H       2.895138    5.626948   -3.690616
C       1.520823   10.396502    1.582218
C       3.009369    7.642158   -3.629903
H       3.295015    7.767096   -4.507482
C       2.363005    6.212532   -1.830590
H       2.218446    5.355138   -1.503107
C       0.552187   10.960150    3.707174
H       0.119850   10.716952    4.494604
N       2.166548    7.260670   -1.020899
