30
2235967
Hg      9.106988    9.688337    7.387186
I       7.142670   11.059288    6.334642
I      11.446856    9.546572    8.567860
O       7.828164    7.723271    8.851307
O       7.717533   10.188812    9.879981
O       6.287077    9.526793   11.524147
N       8.884746    7.435959    6.398974
C       9.358132    7.263035    5.177624
H       9.658220    8.023606    4.714132
C       9.446211    6.000662    4.506470
H       9.794983    5.942917    3.635148
C       9.023013    4.907512    5.146582
H       9.063916    4.071093    4.719484
C       8.488084    5.002738    6.524213
C       8.017254    3.898015    7.184663
H       8.050980    3.051499    6.780044
C       7.520937    4.039318    8.386745
H       7.218702    3.275033    8.842744
C       7.419553    5.318856    9.040772
H       7.063868    5.408154    9.906742
C       7.875696    6.406924    8.322520
C       8.436288    6.339697    7.099029
C       7.079172    7.926153   10.113333
H       6.157474    7.610509   10.004150
H       7.497278    7.406773   10.831585
C       7.074537    9.350879   10.468713
C       6.194842   10.883933   12.033668
H       7.048344   11.144570   12.414737
H       5.508424   10.926055   12.717666
H       5.966722   11.486749   11.308993
