27
2235918
Pd      3.182061    7.609696    2.514141
I       4.471859    9.469413    3.759546
N       2.159260    6.039511    1.512507
C       2.948489    4.811335    1.804148
H       3.729521    4.768731    1.198743
H       2.387972    4.012139    1.641231
C       0.789533    5.927859    2.068635
H       0.302421    6.762313    1.906725
H       0.841791    5.761849    3.033060
H       0.320524    5.184489    1.634192
C       2.053004    6.177608    0.038215
H       1.648308    5.368128   -0.337901
H       2.947454    6.303951   -0.342929
H       1.494470    6.953298   -0.176996
N       4.204862    6.039511    3.515775
C       3.415633    4.811335    3.224135
H       2.634601    4.768731    3.829540
H       3.976150    4.012139    3.387051
C       5.574589    5.927859    2.959647
H       6.061701    6.762313    3.121558
H       5.522331    5.761849    1.995223
H       6.043598    5.184489    3.394091
C       4.311118    6.177608    4.990068
H       4.715814    5.368128    5.366183
H       3.416668    6.303951    5.371212
H       4.869652    6.953298    5.205278
I       1.892263    9.469413    1.268736
