27
2236134
C       2.442097    0.645116    5.689771
H       1.960854    0.105585    5.059216
H       1.820042    1.101106    6.261771
H       3.012820    0.084700    6.220729
C       3.272184    1.649570    4.956061
C       3.259279    2.990738    5.331604
H       2.673794    3.249944    6.005938
C       4.065113    3.964097    4.760287
C       4.010667    5.388340    5.218462
H       4.903024    5.714379    5.356092
H       3.520115    5.440553    6.041508
H       3.574491    5.922069    4.550284
C       7.713672    3.868374    1.495328
H       7.450745    4.761789    1.727904
H       7.924490    3.831245    0.559551
H       8.486090    3.618913    2.006996
C       4.889345   -0.855126    1.772914
H       4.215383   -0.969994    2.446154
H       5.571888   -1.519967    1.886603
H       4.493014   -0.947949    0.904311
O       3.989726    1.190911    4.000721
O       4.905183    3.717769    3.822731
O       6.654959    2.979367    1.774830
O       5.457971    0.423966    1.892760
Cl      6.950392    1.515094    4.455749
Cl      3.495777    2.710994    1.387796
Nb      5.386200    2.067723    2.718405
