27
2236341
Pt     -2.414921    3.571500    5.886340
Br     -3.733770    3.571500    3.804810
Br     -1.107618    3.571500    7.975825
Br     -3.950823    1.883323    6.762154
N      -1.110279    2.142900    5.115601
N      -0.571595    3.571500    3.309159
H      -0.099243    3.571500    2.520196
C      -0.959286    0.954305    5.748362
H      -1.323377    0.844303    6.619041
C      -0.298742   -0.084287    5.169115
H      -0.179647   -0.902875    5.638442
C       0.189301    0.065716    3.902146
H       0.592043   -0.672871    3.459575
C       0.101069    1.271454    3.268662
H       0.465208    1.388599    2.399430
C      -0.536931    2.334332    3.923841
N      -1.110279    5.000100    5.115601
C      -0.959286    6.188695    5.748362
H      -1.323377    6.298697    6.619041
C      -0.298742    7.227287    5.169115
H      -0.179647    8.045875    5.638442
C       0.189301    7.077284    3.902146
H       0.592043    7.815871    3.459575
C       0.101069    5.871546    3.268662
H       0.465208    5.754401    2.399430
C      -0.536931    4.808668    3.923841
Br     -3.950823    5.259677    6.762154
