29
2236340
C       0.534501    4.511500    4.132496
H       1.358489    4.102402    4.406553
H      -0.098879    3.830362    3.896302
H       0.182953    5.037929    4.855502
C       0.778894    5.376421    2.971358
C       0.474409    6.734544    2.991191
H       0.115103    7.123914    3.755667
C       0.708076    7.486287    1.882341
H       0.500868    8.392741    1.882341
C       1.261544    6.896521    0.737431
H       1.427139    7.406337   -0.023439
C       1.559215    5.538399    0.751855
C       2.149359    4.815728   -0.418298
C       2.445037    5.455333   -1.615496
H       2.254019    6.358672   -1.727282
C       3.016802    4.743046   -2.621575
H       3.218802    5.159412   -3.429322
C       3.297037    3.413996   -2.450289
H       3.690426    2.925986   -3.137235
C       2.994542    2.806579   -1.260303
C       3.265165    1.374736   -1.009685
H       2.443565    0.925143   -0.804142
H       3.872254    1.288555   -0.270451
H       3.657334    0.981212   -1.793994
N       1.304223    4.812613    1.851690
N       2.431686    3.508483   -0.245209
Cd      1.879026    2.602549    1.767129
Br     -0.098542    1.059398    1.854935
Br      3.833084    1.952145    3.203045
