29
2239283
Fe      8.303023    3.832578    1.470796
Cl      3.021884    0.869323    0.696894
N       5.002768    2.499329    0.319934
N       4.343210    1.114121   -1.515475
C       6.764907    4.122763    0.166141
C       6.499573    4.756323    1.421179
H       5.740422    4.566357    2.010530
C       7.514719    5.710257    1.658042
H       7.585941    6.284261    2.449456
C       8.423228    5.675345    0.583738
H       9.233583    6.219570    0.498423
C       7.970136    4.708061   -0.346875
H       8.411796    4.469835   -1.188806
C       8.364358    1.861661    1.990324
H       7.734642    1.162383    1.716416
C       9.560214    2.246726    1.314534
H       9.904971    1.860634    0.482707
C      10.164844    3.274593    2.075639
H      11.002243    3.734617    1.856737
C       9.381464    3.510766    3.174639
H       9.560326    4.173078    3.874003
C       8.285144    2.650274    3.123001
H       7.562402    2.616388    3.785319
C       5.963000    3.066144   -0.445662
C       6.129182    2.673891   -1.771422
H       6.780324    3.059983   -2.311380
C       5.296110    1.695313   -2.253006
H       5.399390    1.422173   -3.135349
C       4.282433    1.579280   -0.290747
