27
2240416
C       4.860072   -2.095233    4.781612
H       4.056244   -2.518837    5.121395
H       5.595791   -2.721256    4.867361
C       4.672694   -1.711174    3.336946
H       5.525688   -1.489988    2.930492
H       4.269873   -2.440417    2.839383
C       2.990955   -0.313011    2.374942
H       2.974941   -0.924289    1.674261
C       2.113582    0.829782    2.292944
C       1.194906    0.900159    1.229756
H       1.164997    0.209791    0.607750
C       0.342745    1.963862    1.090949
H      -0.268977    1.984640    0.391233
C       0.397611    3.006786    1.999037
H      -0.184060    3.727316    1.907929
C       1.306723    2.988019    3.037036
H       1.345606    3.703187    3.630424
C       2.167443    1.901528    3.201676
Mo      3.929200    0.598877    5.296645
N       3.786504   -0.540900    3.344449
O       5.137725   -0.907465    5.517558
O       3.047592    1.949652    4.210520
O       5.699956    1.443070    4.046845
O       4.549593    1.524842    6.601218
O       2.527979   -0.166224    5.851767
H       6.351380    1.179658    4.233886
H       5.657727    1.481275    3.269203
