20
2240338
Pd      0.673655   13.405470   12.179325
Cl     -0.538159   14.241232   13.933103
Cl     -0.083462   15.153059   10.899858
S       3.028990   11.412437    8.765772
O       1.214552   11.720907   14.571819
N       1.421904   11.842339   13.213153
N       1.737061   12.457241   10.714250
N       1.580569   13.661781    8.716374
H       1.071970   14.259433    9.068719
H       1.805309   13.724263    7.888768
C       2.183933   10.928882   15.249922
H       2.085691   11.045696   16.197657
H       3.064635   11.204617   14.983243
H       2.055696   10.005238   15.025912
C       2.153504   11.002230   12.579032
H       2.529519   10.257882   12.990948
C       2.350858   11.292906   11.181307
C       3.075068   10.615114   10.292159
H       3.537589    9.828659   10.468577
C       2.013530   12.656639    9.441084
