22
2240510
C      -2.915020    2.170050   -0.254509
C      -2.556026    2.170050    1.130609
C      -2.355957    0.997963    1.943151
H      -2.422744    0.112843    1.665498
C      -2.034852    1.456190    3.258488
H      -1.855802    0.914025    3.992440
C       0.960046    2.170050    0.233533
H       0.734020    2.170050   -0.669136
C       1.162540    1.013327    1.042509
H       1.093959    0.129335    0.761430
C       1.489906    1.453586    2.360294
H       1.671083    0.907081    3.090470
N      -3.214850    2.170050   -1.362743
Ru     -0.510691    2.170050    1.839669
C      -2.355957    3.342137    1.943151
H      -2.422744    4.227257    1.665498
C      -2.034852    2.883910    3.258488
H      -1.855802    3.426075    3.992440
C       1.162540    3.326773    1.042509
H       1.093959    4.210765    0.761430
C       1.489906    2.886514    2.360294
H       1.671083    3.433019    3.090470
