28
2241621
Re      1.938497    1.773025    8.233133
O       0.998631   -1.122131    8.480936
O      -0.390335    2.414149    6.375964
O       3.465291    0.804230    5.801675
O       3.527972    1.564713    9.623635
O       5.505289    2.265407   10.307808
O       1.042080    2.592786   10.036490
H       0.196592    2.514769   10.072666
H       1.374007    2.220930   10.726089
N       2.916828    3.736791    8.297797
H       2.857707    4.053963    7.456712
H       2.525068    4.333949    8.847215
C       1.300642   -0.017499    8.401802
C       0.480083    2.174995    7.070084
C       2.894034    1.187024    6.721894
C       4.476030    2.401754    9.604643
C       4.341408    3.602631    8.679902
H       4.853544    3.403579    7.856905
C       4.926910    4.889546    9.290367
H       5.865708    4.699972    9.541336
C       4.188265    5.308066   10.554255
H       3.303601    5.629613   10.321374
H       4.682594    6.015322   10.997407
H       4.108489    4.546855   11.148892
C       4.944717    6.018239    8.261621
H       4.034411    6.277809    8.051350
H       5.389186    5.714192    7.456712
H       5.422664    6.779451    8.627900
