28
2241832
Re      6.244138    8.239490    9.844272
S       1.829483   10.251163    9.032523
O       4.919221    6.208498   11.702921
N       7.029229   10.069289    6.112684
O       7.003894    9.953636   12.271497
C       5.444811    6.979963   11.025545
O       6.935880    9.582293    8.302626
N       5.799479    7.244180    7.952281
O       8.927680    6.816876   10.311316
C       7.922592    7.346376   10.112891
C       6.701887    9.310348   11.368244
C       4.933362    5.471142    6.604547
H       4.557441    4.600812    6.550648
C       5.163720    6.208498    5.455739
H       4.931574    5.857274    4.604005
C       6.050707    7.953555    6.826412
C       5.259206    6.018629    7.833201
H       5.095637    5.510848    8.618877
C       6.695261    9.271442    7.107566
N       4.392183    9.218145    9.471991
C       5.736946    7.468025    5.563663
H       5.911270    7.987798    4.788265
C       7.658191   11.366656    6.349340
H       7.108277   11.887762    6.971815
H       7.737535   11.850455    5.501491
H       8.549270   11.232216    6.733655
C       3.334492    9.649580    9.279332
H       6.816887    9.877155    5.318484
