19
2241743
Zn      1.088759    5.635575    5.400448
N       3.087537    5.635575    4.961131
H       3.265098    4.966820    4.515282
N       1.684723    5.635575    7.356786
H       1.388508    5.004391    7.809450
Cl      0.015484    3.801007    4.725285
C       3.836490    5.635575    6.204963
C       3.137187    5.635575    7.404778
C       3.823025    5.635575    8.613113
H       3.343359    5.635575    9.433816
C       5.215741    5.635575    8.615953
H       5.689517    5.635575    9.439495
C       5.903263    5.635575    7.427497
H       6.853339    5.635575    7.436016
C       5.234254    5.635575    6.222002
H       5.720653    5.635575    5.405559
H       3.265098    6.304330    4.515282
H       1.388508    6.266759    7.809450
Cl      0.015484    7.470143    4.725285
