30
2242834
C       1.161942    8.410455    4.479395
C       1.642149    8.840488    3.202587
H       2.450030    8.581882    2.820899
C       0.706901    9.715221    2.606136
H       0.791048   10.115450    1.770497
C      -0.378179    9.877730    3.495687
H      -1.126760   10.409961    3.352427
C      -0.122258    9.076801    4.662266
C      -0.730838    7.068612    1.245043
H      -0.544732    7.414399    0.402443
C       0.083515    6.170530    1.974756
H       0.898690    5.820989    1.694564
C      -0.561210    5.897374    3.209800
H      -0.244862    5.335222    3.880159
C      -1.766559    6.629662    3.239541
H      -2.381157    6.638814    3.937109
C      -1.878079    7.346344    2.026263
H      -2.582380    7.903686    1.784418
C      -1.103111    8.842835    5.731651
C      -2.389624    9.617950    5.691786
H      -2.907727    9.418480    6.475791
H      -2.886882    9.372720    4.907781
H      -2.196514   10.557803    5.667108
B       1.913665    7.334611    5.321361
O      -0.902191    8.048008    6.653094
O       1.392679    6.742304    6.432130
H       0.638396    7.034233    6.568176
O       3.160293    7.005604    4.899808
H       3.445690    6.381851    5.349456
Fe     -0.182514    7.902747    3.025790
