25
2242069
Re      1.482824    1.599410   11.488886
S       0.426568    3.626906   10.488141
S       2.762877    2.269965    9.444677
O      -0.335054   -0.307998    9.924055
O       3.237380   -0.742881   12.429854
O      -0.338188    1.310430   13.938262
N       1.994262    4.696406    8.596144
N       2.768986    3.040063   12.440352
C       1.759891    3.675085    9.399481
C       1.094322    5.847495    8.538117
H       0.590927    5.827074    7.698039
H       1.617878    6.674795    8.584480
H       0.470130    5.812653    9.293049
C       3.126236    4.705044    7.669900
H       3.878496    4.220553    8.068361
H       3.393364    5.631184    7.489550
H       2.865642    4.271289    6.830552
C       0.344924    0.407688   10.523715
C       2.582472    0.131710   12.071925
C       0.350196    1.420784   13.030243
C       3.451414    3.849246   12.863452
C       4.324912    4.880274   13.397212
H       5.258640    4.635451   13.231005
H       4.176639    4.966493   14.362383
H       4.127733    5.734574   12.958366
