13
2310389
N       0.258704    2.391405   -3.098347
H       2.532651    5.226900    4.750566
C       0.716758    2.898375   -1.908086
N       3.056624    5.373293    3.868567
H       0.794918    2.544675   -3.964626
S       2.177413    3.754132   -1.741292
Ni      1.631704    3.872032    0.393843
H      -0.634365    1.876575   -3.126291
C       2.584624    4.833900    2.688785
S      -0.074059    2.708752   -0.432267
S       1.181627    3.885788    2.557795
S       3.360890    5.000925    1.203360
H       3.916976    5.934300    3.868567
