13
2310510
C       0.376608    1.428650    1.158756
C       2.557404    2.773000    1.973684
O      -0.313055    0.628916    1.579201
O       3.191753    2.773000    2.934249
Cr      1.504078    2.773000    0.403982
O      -0.158881    2.773000   -2.137050
C       0.461345    2.773000   -1.217644
O       3.272959    0.598968   -0.806697
C       2.620956    1.414230   -0.338129
C       0.376608    4.117350    1.158756
O      -0.313055    4.917084    1.579201
O       3.272959    4.947032   -0.806697
C       2.620956    4.131770   -0.338129
