30
2311279
Ir      5.792337    5.669682    8.845127
Cl      5.615759    7.668493   10.100582
Cl      7.044143    6.968749    7.323207
Cl      3.925643    6.219565    7.498305
N       4.379795    5.003253   10.130606
C       6.415394    4.130648    7.346890
H       5.963222    4.197042    6.481103
C       5.683502    3.485679    8.336914
H       4.796487    3.184535    8.048319
C       6.327930    2.604774    9.378705
H       7.128307    2.208782    8.998225
H       5.718158    1.881555    9.593534
C       6.709965    3.326808   10.680620
H       5.974774    3.243815   11.306989
H       7.478162    2.881020   11.068865
C       7.036717    4.789844   10.509792
H       7.028466    5.307954   11.341931
C       7.883302    5.291355    9.524944
H       8.360227    6.103495    9.794127
C       8.658925    4.427049    8.549155
H       8.924617    3.613724    9.005990
H       9.469203    4.898920    8.300678
C       7.914657    4.039356    7.267946
H       8.220780    4.614375    6.549693
H       8.156420    3.129997    7.036294
C       3.553839    4.718708   10.839800
C       2.489420    4.386739   11.772883
H       1.670890    4.798143   11.484287
H       2.717982    4.709223   12.647728
H       2.375552    3.433512   11.802648
