17
2311080
C       0.991320   -0.898128    1.327726
N       1.644409   -1.424304    2.124361
C      -0.008416    1.538838    1.125462
N      -0.013098    2.483460    1.786664
H       0.072038    3.367980    2.637709
C      -1.617637   -0.572670    0.773570
N      -2.595776   -0.907200    1.253208
Fe      0.000000    0.000000    0.000000
H      -3.544745   -1.168020    1.750587
C      -0.991320    0.898128   -1.327726
N      -1.644409    1.424304   -2.124361
C       0.008416   -1.538838   -1.125462
N       0.013098   -2.483460   -1.786664
H      -0.072038   -3.367980   -2.637709
C       1.617637    0.572670   -0.773570
N       2.595776    0.907200   -1.253208
H       3.544745    1.168020   -1.750587
