29
4000904
Zn      8.986681    0.047975    4.040663
N      10.743927   -0.881348    3.962004
N       8.479559   -1.593077    5.258233
C      12.016164   -0.681797    3.569429
C      12.869147   -1.618021    4.173233
H      13.723905   -1.646291    3.994556
C      12.057404   -2.434515    4.967010
H      12.266951   -3.167863    5.504067
C      10.763264   -1.958088    4.824274
C       9.514259   -2.317279    5.455804
H       9.510820   -3.093031    5.996969
C       7.207998   -1.982201    5.900442
H       7.392542   -2.802020    6.407720
C       6.758753   -0.877190    6.816418
H       6.540975   -0.099775    6.315301
H       5.858746   -1.172359    7.260029
H       7.431188   -0.781572    7.485942
C       6.178593   -2.298155    4.834543
H       5.354773   -2.544268    5.175466
H       5.953893   -1.455055    4.323157
H       6.409126   -2.976627    4.282082
C       7.763040    1.147415    2.962544
H       8.137111    1.446740    2.238595
H       7.243883    0.540449    2.577464
C       6.967151    2.176762    3.697789
H       6.380874    2.718874    3.173054
H       7.537691    2.785391    4.169126
H       6.467062    1.829212    4.456652
H      12.249477    0.033258    2.977947
