28
4000217
Cr     -0.865717    7.307270    8.284742
O       0.679530    8.328523    7.825075
O      -0.402173    9.119383    8.418369
O      -2.592298    7.568271    8.954489
O      -2.329964    6.162260    8.680968
N      -1.436165    7.369398    6.295352
H      -2.251899    7.471812    6.249195
H      -1.112698    8.110457    5.935786
N       0.155529    5.648531    7.652035
H      -0.281445    5.057868    7.673784
N       0.059985    6.849382   10.094825
H      -0.479329    6.793459   10.722403
H       0.578179    7.455267   10.247540
C      -0.920841    6.168216    5.592935
H      -0.802915    6.363284    4.629913
H      -1.564514    5.421862    5.682209
C       0.404156    5.785691    6.210256
H       0.730525    4.930470    5.831316
H       1.082723    6.487373    6.040256
C       1.311500    5.451974    8.554180
H       1.994781    6.151505    8.399374
H       1.723897    4.564821    8.401274
C       0.766221    5.546282    9.963572
H       0.138945    4.799763   10.136423
H       1.506368    5.493006   10.618883
O      -0.460235    2.884821    7.685180
H      -0.375592    2.597596    8.433564
H      -0.164577    2.265038    7.198921
