29
4030249
Mo      2.364910    3.736200    1.443857
Cl      1.091781    3.804278   -0.499527
Cl      3.137205    2.796307    3.436352
O       1.810207    5.289817    2.155262
O       3.836959    4.141624    0.799804
O       3.756321   -0.483664   -0.390080
O       0.857268    0.307878    1.415794
O       2.538131    1.614583    0.791385
O      -1.679070    1.148193    3.187992
O      -0.602501    4.519613    3.383032
O       0.327595    2.811549    2.280144
C       4.154063   -1.724322   -0.743678
C       3.303943   -2.641860   -0.356404
C       2.276139   -1.975298    0.321325
C       2.591646   -0.661481    0.277827
C       1.990360    0.520243    0.839093
C      -2.839624    0.758011    3.855898
C      -3.386465    1.745660    4.491532
C      -2.601572    2.884708    4.286670
C      -1.616225    2.487413    3.538783
C      -0.545541    3.250504    3.013017
H       4.964094   -1.910268   -1.223560
H       3.372879   -3.587849   -0.503736
H       1.503569   -2.369545    0.732452
H       0.473971    1.178676    1.753957
H      -3.186828   -0.138190    3.843270
H      -4.192606    1.697903    5.012107
H      -2.761789    3.768715    4.623430
H       0.238256    4.826475    3.072932
