24
4060321
Fe     -0.060337    2.375873    1.949138
C       0.910640    2.318696    0.402267
O       1.538096    2.309905   -0.533441
C      -0.829764    4.014299    1.576275
O      -1.312024    5.004276    1.343441
C      -1.475790    1.423794    1.225385
O      -2.304806    0.822354    0.777206
C      -0.759920    2.387048    3.643360
O      -1.247961    2.459523    4.654494
C       0.801059    0.593698    2.368785
O       0.621915   -0.412235    1.733684
C       1.677448    0.436963    3.654291
O       1.387668    1.052894    4.639190
C       1.549581    3.290851    2.706559
O       2.699034    2.969833    2.533846
C       2.359761    5.109196    4.005182
O       1.232686    4.376138    3.450971
C       2.758932   -0.597884    3.604008
H       2.854038    5.483910    3.246559
H       2.899024    4.519662    4.569230
H       1.991033    5.812961    4.547368
H       2.363980   -1.462096    3.749392
H       3.100281   -0.662908    2.721862
H       3.369730   -0.424621    4.328745
