27
4060948
Ti      3.999553    6.296363    1.878518
Cl      3.029085    8.295432    2.514430
Cl      3.046124    4.289414    2.498962
O       4.531200    6.332610    4.154052
C       2.635334    6.228782    0.229444
H       1.715819    6.199116    0.567165
H       2.811574    5.428746   -0.308503
H       2.753237    7.027890   -0.324831
C       5.698214    5.705931    4.529583
H       5.621268    4.726977    4.405838
H       5.899927    5.890412    5.480873
C       6.819524    6.285331    3.611808
H       7.048892    7.204955    3.899687
H       7.633291    5.726326    3.679696
C       6.329719    6.302945    2.192177
C       5.990001    7.442277    1.453145
H       6.085937    8.346141    1.728993
C       5.460133    6.975049    0.181321
H       5.125939    7.514586   -0.525916
C       5.540281    5.573364    0.200226
H       5.287279    4.998600   -0.513026
C       6.030765    5.174737    1.380960
H       6.159469    4.269946    1.639621
C       3.505967    6.340027    5.168073
H       3.062781    5.465828    5.190416
H       2.846932    7.035307    4.960972
H       3.910813    6.523580    6.041163
