30
4060949
Ti      5.597049    8.370152    1.957322
Cl      4.464555   10.033862    3.158770
O       4.909039    9.714566    0.246873
C       7.497426    8.677530    1.035261
H       7.750558    9.409099    1.396940
H       7.454151    8.786248    0.099017
H       8.074161    8.012744    1.263133
C       6.795415    8.038490    3.692257
H       7.443170    7.341548    3.582000
H       6.305922    7.800255    4.453080
H       7.250900    8.844711    3.850951
C       4.562692    9.060348   -0.999133
H       4.104839    9.683424   -1.565536
H       5.382631    8.781751   -1.479900
C       3.677187    7.896043   -0.641602
H       2.818799    8.204995   -0.420152
H       3.547271    7.339300   -1.421025
C       4.282199    7.115231    0.482908
C       5.568648    6.524197    0.477689
H       6.185951    6.484847   -0.271627
C       5.819963    6.010513    1.755407
H       6.605984    5.594417    2.052592
C       4.704920    6.271459    2.559718
H       4.622792    6.071112    3.425446
C       3.753459    6.945127    1.776549
H       2.902235    7.261725    2.060620
C       5.527316   10.991973    0.006155
H       5.701067   11.413691    0.893827
H       6.375254   10.890900   -0.466985
H       4.946549   11.545231   -0.515155
