23
4060843
Ti      0.138603    3.133381    2.539230
Cl      0.975601    3.814057    4.487330
Cl     -2.001117    3.788867    2.661088
Cl      1.007987    4.607454    1.107618
P       1.859475    1.295027    1.979535
C       0.471220    1.445788    0.924017
H       0.549082    1.705531    0.023795
C      -0.764153    1.152330    1.516525
H      -1.591562    1.161290    1.070797
C      -0.574740    0.828424    2.937867
C      -1.675451    0.431553    3.885930
H      -2.281982   -0.192838    3.435318
H      -2.191097    1.227089    4.135407
C      -1.116786   -0.225268    5.147217
H      -1.822385   -0.281138    5.826140
H      -0.824510   -1.136980    4.938192
C       0.059222    0.569661    5.702153
H       0.343481    0.181975    6.556286
H      -0.217132    1.494992    5.864964
C       1.227335    0.548776    4.716518
H       1.903445    1.199275    5.000812
H       1.641331   -0.339505    4.722780
C       0.778085    0.878567    3.318846
