25
4061467
Zr      1.527703    2.642875    7.780461
C       3.850624    2.642875    7.830693
C       3.430809    1.362983    7.371950
C       2.483031    1.047001    6.363127
C       1.720123    1.930779    5.558107
C       0.965987    2.642875   10.209908
C       0.342759    1.501999    9.664267
C      -0.658537    1.938919    8.777035
H       4.408010    2.642875    8.566490
H       3.722936    0.667062    7.851246
H       2.276177    0.145887    6.256333
H       1.055924    1.507496    5.023153
H       1.654392    2.642875   10.761551
H       0.580703    0.623719    9.839954
H      -1.196936    1.423981    8.278748
C       3.430809    3.922767    7.371950
C       2.483031    4.238749    6.363127
C       1.720123    3.354971    5.558107
H       3.722936    4.618688    7.851246
H       2.276177    5.139863    6.256333
H       1.055924    3.778254    5.023153
C       0.342759    3.783751    9.664267
C      -0.658537    3.346831    8.777035
H       0.580703    4.662032    9.839954
H      -1.196936    3.861769    8.278748
