25
4061498
Pd      0.000000    0.000000    0.000000
I      -0.443491    1.921521   -1.691032
O      -0.307949    1.715326    2.397979
N       1.655811    1.974887    1.599635
C       0.520099    1.340264    1.408150
C       0.364287    2.606292    3.221364
C       1.565113    2.776478    2.750753
C       2.833521    1.852246    0.745318
H       3.505207    1.335897    1.197517
H       3.179810    2.726131    0.550151
H       2.591323    1.412992   -0.073648
H       2.305224    3.235159    3.085852
H      -0.104617    2.969539    3.962263
I       0.443491   -1.921521    1.691032
O       0.307949   -1.715326   -2.397979
N      -1.655811   -1.974887   -1.599635
C      -0.520099   -1.340264   -1.408150
C      -0.364287   -2.606292   -3.221364
C      -1.565113   -2.776478   -2.750753
C      -2.833521   -1.852246   -0.745318
H      -3.505207   -1.335897   -1.197517
H      -3.179810   -2.726131   -0.550151
H      -2.591323   -1.412992    0.073648
H      -2.305224   -3.235159   -3.085852
H       0.104617   -2.969539   -3.962263
