27
4063363
C       2.409624    4.979904   11.746077
H       1.423374    4.997135   11.587630
H       2.761190    4.668170   12.580310
C       3.152423    5.778819   10.862210
H       4.052338    5.984030   11.053110
C       2.657743    5.951134    9.560272
H       1.718938    5.984030    9.449550
C       3.475210    6.444581    8.395782
H       4.410904    6.482177    8.649679
H       3.191313    7.340619    8.155248
C       3.313428    5.520346    7.191394
H       3.869555    5.821114    6.456238
H       2.389402    5.509380    6.895308
C       3.168757    2.717878    6.537180
C       2.698966    3.111069    5.293657
H       2.681854    4.011806    5.064577
C       2.254064    2.157071    4.390700
H       1.934389    2.421809    3.558376
C       2.284399    0.822413    4.722866
H       1.980279    0.186414    4.115804
C       2.764301    0.426088    5.954171
H       2.796969   -0.477782    6.167979
C       3.197536    1.367555    6.872400
H       3.506322    1.098117    7.706633
S       3.828643    3.851084    7.740040
Cl      2.897616    1.591407   10.560779
Pd      2.924372    3.886079    9.938197
