26
4064749
Re      4.120200    7.137593   11.504841
C       3.544063    8.949117   11.294018
C       5.931612    7.687127   11.292694
C       3.957997    6.958477    9.609451
C       4.193372    6.479388   13.704327
H       4.700421    6.945123   14.330743
C       2.847852    6.733956   13.378538
H       2.321477    7.401676   13.752004
C       2.422935    5.809164   12.385279
C       3.563678    4.971175   12.108491
H       3.585930    4.270069   11.499292
C       4.640843    5.393508   12.918990
H       5.493364    5.022924   12.932234
C       1.067263    5.671447   11.879379
C       0.670402    4.602260   11.068880
H       1.293763    3.971265   10.789443
C      -1.078131    6.456852   11.909839
H      -1.691200    7.092856   12.198546
C      -1.538154    5.430233   11.107286
H      -2.433228    5.380154   10.859633
C      -0.639578    4.492921   10.690117
H      -0.915650    3.785138   10.152433
N       0.183597    6.591231   12.291251
O       7.039037    7.983427   11.235747
O       3.188698   10.029989   11.162908
O       3.834233    6.868335    8.473163
