23
4065378
Mo      1.302765    1.566187    4.043551
S       0.169749    1.601817    1.720972
O       2.787973    1.548693    6.786648
O      -1.431415    1.339028    5.664714
O       1.412484   -1.592427    3.981354
O       4.119201    1.651596    2.599806
O       1.319111    4.742551    4.078594
N      -2.337707    1.610435    0.881585
C       2.255078    1.555125    5.765624
C      -0.470093    1.450935    5.080354
C       1.361349   -0.477214    3.993279
C       3.100322    1.623298    3.081421
C       1.283004    3.618334    4.059329
C      -1.492135    1.579564    1.851238
H      -1.844051    1.542262    2.710806
C      -1.891180    1.681181   -0.512806
H      -1.373896    2.479967   -0.643071
H      -2.656353    1.696617   -1.092579
H      -1.351048    0.913266   -0.715543
C      -3.771714    1.558983    1.107257
H      -3.946148    1.515250    2.050305
H      -4.137003    0.782064    0.678848
H      -4.181585    2.347479    0.743064
