23
4066976
Pd      9.200477    1.181112    9.008809
Cl     11.115089    2.353544    9.735967
P       7.863981    1.728944   10.763574
C       7.708982    0.199763    7.898852
C       8.937272   -0.318993    7.498361
C       9.918734    0.496793    7.023883
C       8.705652    1.968346   12.325169
C       6.981366    3.231769   10.559146
C       6.591823    0.577326   11.252366
H       7.404834    0.972668    7.334304
H       7.135780   -0.355599    8.411932
H       9.241420   -1.349185    7.704236
H       9.709340    1.391020    6.562272
H      10.750462    0.282388    6.883952
H       8.747764    1.125367   12.802864
H       8.221354    2.618884   12.857550
H       9.606398    2.291523   12.161112
H       7.507776    3.967023   10.911386
H       6.139110    3.179475   11.036841
H       6.809406    3.380284    9.615015
H       5.776472    0.769768   10.765021
H       6.426881    0.663088   12.204539
H       6.880764   -0.327360   11.056142
