28
4066895
C       6.955492    0.203510    2.728407
C       6.418387    0.633725    3.943373
C       6.519366   -0.172086    5.201589
H       7.431118   -0.065842    5.571925
H       5.882831    0.197525    5.864769
C       4.870911   -1.796428    4.878897
H       4.381443   -1.298875    5.580935
H       4.701616   -2.760858    5.025657
C       4.303258   -1.411853    3.539248
C       4.917710   -1.734328    2.326873
C       4.922242    2.094960    1.623258
H       5.699858    2.620945    1.482242
C       4.434298    1.125293    0.761508
H       4.799221    0.880631   -0.081095
C       3.311258    0.581351    1.367695
H       2.779528   -0.121957    1.013692
C       3.087432    1.228544    2.573875
H       2.380109    1.056458    3.182991
C       4.085772    2.170528    2.724240
H       4.183702    2.766844    3.456688
O       6.254247   -1.555059    5.042327
Co      4.942982    0.263441    2.596638
H       7.299511    0.815538    2.131005
H       7.295080   -0.658416    2.672767
H       6.387187    1.548774    4.090809
H       3.395451   -1.346760    3.606489
H       5.788213   -2.169780    2.313469
H       4.373635   -1.967766    1.549822
