27
4067356
Pt     -0.015365   11.896073    6.862770
Cl     -0.618746   14.113652    7.089115
Cl     -0.493111   12.017103    4.611841
O       0.377861    6.320357    7.291858
H      -0.484257    6.851395    7.098906
N       0.635261    9.992172    6.842597
N       1.492978    8.228326    8.115504
N       1.053632   10.005476   10.387730
N       0.426740   11.636285    8.799476
C       0.794828    9.237188    5.683445
H       0.614237    9.636299    4.839640
C       1.195252    7.963361    5.729523
H       1.346339    7.494406    4.917397
C       1.409964    7.264918    7.016830
H       2.278543    6.772682    6.964992
C       1.006431    9.468894    8.001749
C       0.847745   10.399043    9.156581
C       0.898942   10.925647   11.352490
H       1.037810   10.666225   12.255333
C       0.546035   12.239386   11.087541
H       0.480722   12.889049   11.777273
C       0.294358   12.554239    9.761356
H       0.023172   13.435608    9.532406
C       2.101579    7.655159    9.349533
H       2.686496    8.322560    9.765676
H       2.626292    6.861373    9.116263
H       1.392597    7.405715    9.978787
