28
4067306
Cr      7.129101    4.014558    4.050472
O       9.207721    5.535516    5.524018
O       6.717281    2.522119    6.583500
O       9.138670    1.960658    3.273360
O       5.127359    2.228354    0.096575
N       7.023868    3.257365    0.814721
N       7.089236    1.808038   -0.922449
C       8.424222    4.955116    4.945040
C       6.851701    3.090264    5.609441
C       8.376347    2.762745    3.586578
C       6.952975    5.225821    2.183031
H       7.761332    5.554454    1.738120
C       6.424505    5.927647    3.263869
H       6.868273    6.750901    3.554544
C       5.417281    5.414089    4.031489
H       5.151205    5.871947    4.856058
C       4.966148    4.111811    3.778780
H       4.382437    3.674005    4.433689
C       5.490936    3.355398    2.713365
H       5.273655    2.404034    2.625570
C       6.472380    3.942481    1.892949
C       6.341644    2.394787   -0.000831
C       6.565369    0.777579   -1.806933
H       6.876559   -0.082437   -1.515071
H       6.869193    0.940224   -2.702688
H       5.606021    0.795403   -1.785577
H       7.823939    3.305268    0.654909
H       7.943627    1.826976   -0.818637
