18
4068119
W       6.509076    4.798475   13.058158
Sb      7.297612    5.565453   10.595768
Br      6.050645    7.504879    9.621735
Br      6.640498    3.815740    8.933888
O       3.698937    3.886587   11.904673
O       7.687729    1.912111   12.404017
O       9.277976    5.660247   14.380171
O       5.233189    7.644702   13.711362
O       5.525020    3.746889   15.861662
C       9.175868    6.033190    9.740329
H       9.662033    5.203736    9.546833
H       9.694971    6.577013   10.370751
H       9.041481    6.534605    8.910169
C       4.717380    4.220863   12.296346
C       7.286544    2.949865   12.636836
C       8.309599    5.372121   13.906106
C       5.706838    6.634389   13.463563
C       5.894584    4.141036   14.846121
