28
4068069
Ti      6.459003    0.468853    3.057907
F       7.013225   -1.704325    0.977597
F       4.898917   -1.716520    1.450387
F       6.326225   -2.604293    2.802617
N       8.357547   -0.033481    3.386067
N       9.392709    0.093656    2.769080
N      10.401454    0.169247    2.239032
C       5.960461    1.018131    0.792618
H       5.660668    0.372781    0.193977
C       7.295948    1.373193    1.017795
H       8.036252    0.995234    0.600628
C       7.328493    2.397192    1.980902
H       8.089816    2.818872    2.309027
C       6.000305    2.669990    2.360092
H       5.729534    3.306709    2.982104
C       5.151055    1.807760    1.629991
H       4.224090    1.769561    1.692040
C       6.085929   -0.749475    5.065019
H       6.549226   -1.541750    5.218682
C       4.841521   -0.619807    4.393111
H       4.339434   -1.317391    4.038460
C       4.499527    0.734402    4.355251
H       3.733640    1.097634    3.973022
C       5.529043    1.449591    5.003321
H       5.563956    2.372455    5.112345
C       6.487808    0.535241    5.453791
H       7.259231    0.744412    5.929152
C       6.137074   -1.488595    2.020399
