22
4068330
Ti     15.479242    0.583735    2.114535
Cl     15.653922   -1.327736    3.302918
Cl     17.419609    0.592496    0.971009
N      14.127069    0.174264    0.763201
C      16.133094    2.226384    3.656563
C      15.789917    2.841544    2.466054
C      14.411672    2.655853    2.226889
C      13.910980    1.916899    3.272837
C      14.967040    1.637887    4.159341
C      14.477296   -0.823705   -0.129680
C      13.424686   -1.135094   -0.930085
C      12.356574   -0.241874   -0.553799
C      12.808043    0.484700    0.454944
H      17.101795    2.155917    3.993520
H      16.440018    3.273870    1.969654
H      13.934660    2.990096    1.470066
H      12.978488    1.581704    3.380195
H      14.892005    1.088433    4.967186
H      15.387493   -1.259840   -0.178576
H      13.395284   -1.841671   -1.636950
H      11.496180   -0.185691   -0.953470
H      12.310198    1.118906    0.898196
