21
4068117
Cr      4.335273   -0.020243    3.702265
Sb      1.859464    0.673714    3.811806
Br      0.774282    0.108998    1.604374
O       3.657305   -2.632182    2.353487
O       4.518465    1.244398    0.942097
O       5.228668    2.614015    4.970293
O       4.112108   -1.400759    6.407429
O       7.228576   -0.869392    3.531986
C       0.383444   -0.245895    5.034660
H       0.556481   -1.208714    5.088494
H      -0.503729   -0.094725    4.646118
H       0.415964    0.142736    5.934626
C       1.164546    2.702252    3.919357
H       1.756132    3.278386    3.391549
H       1.168325    2.999402    4.853262
H       0.253884    2.754805    3.563584
C       3.864121   -1.639518    2.866081
C       4.447660    0.786994    1.987181
C       4.869540    1.623946    4.506851
C       4.185944   -0.874582    5.398625
C       6.123124   -0.534611    3.586990
