28
4068331
Ti      1.822637    5.464872    0.716865
Cl     -0.361698    4.828730    0.130066
Cl      2.178561    6.733694   -1.214163
N       2.409100    3.419872   -0.438919
C       1.377760    5.912988    2.988724
C       2.676381    6.374005    2.756924
C       2.593308    7.415623    1.822210
C       1.228149    7.634331    1.532459
C       0.484575    6.699708    2.279372
C       2.109456    3.090236    0.857447
C       3.009815    3.681850    1.751382
C       3.947380    4.419793    0.929348
C       3.565684    4.155455   -0.401358
C       1.037770    2.113130    1.192270
C       4.331091    4.495318   -1.645140
H       1.089341    5.154589    3.549982
H       3.473891    5.949177    3.120722
H       3.318354    7.925417    1.489533
H       0.867865    8.281015    0.933641
H      -0.520561    6.621036    2.213910
H       3.051816    3.570135    2.696827
H       4.726474    4.967350    1.325341
H       0.749145    2.257886    2.111960
H       1.325455    1.250885    1.060273
H       0.300431    2.132011    0.651402
H       4.990923    5.148296   -1.442314
H       3.735190    4.839901   -2.299762
H       4.752605    3.713318   -1.981036
