23
4068003
Cu      6.661589    1.869637    6.439387
Cl      4.373053    1.288045    0.506566
N       5.984543    1.649216    4.680940
F       9.305458    1.012947    7.987137
F       9.938905    1.369365   10.575601
F       8.248437    2.704447   12.234120
F       5.892929    3.691899   11.265258
F       5.242787    3.352680    8.686066
C       7.235824    2.152494    8.214759
C       8.420550    1.695597    8.770297
C       8.777986    1.854820   10.090060
C       7.915312    2.523569   10.947005
C       6.723902    3.017831   10.447099
C       6.427289    2.826659    9.121851
C       6.711948    1.051755    3.707115
H       7.564132    0.695515    3.929513
C       6.268383    0.939197    2.404329
H       6.809328    0.534229    1.736874
C       5.012769    1.433268    2.098091
C       4.247697    2.049679    3.078445
H       3.387840    2.401358    2.879554
C       4.774598    2.134794    4.349758
H       4.257084    2.558019    5.025180
