26
4068002
Cu      2.551849    5.441743    0.031775
F       1.617975    3.956587   -4.902477
F       3.947424    4.995444   -5.853432
F       5.116891    6.410734   -1.532596
F       1.033741    4.121211   -2.283747
F       5.688108    6.219767   -4.160481
N       2.006307    5.561418    1.848325
C       4.218040    5.783293   -2.335987
C       2.207582    4.672818   -2.703552
C       0.796892    5.692848    5.976627
H       1.509996    6.097191    6.513837
H       0.623215    4.783112    6.297068
H      -0.018940    6.229792    6.060103
C       0.805990    5.078220    2.240394
H       0.227979    4.703180    1.586048
C       2.473642    4.562631   -4.055867
C       2.808943    6.093582    2.787028
H       3.648757    6.450826    2.521789
C       1.221037    5.644854    4.538413
C       3.659201    5.083755   -4.540163
C       2.455601    6.140929    4.123994
H       3.055028    6.512164    4.760837
C       3.042425    5.278258   -1.786795
C       0.390337    5.109654    3.555817
H      -0.463021    4.765460    3.792782
C       4.533416    5.700707   -3.672953
