29
4069245
Mo      1.662270    1.908606    1.683923
C      -0.592883    1.313113    1.821780
C       0.019318    0.646174    2.900070
C       0.545050    1.619709    3.783253
C       0.258177    2.896177    3.267659
C      -0.451575    2.710753    2.035706
C      -1.048019    3.751471    1.179077
C      -1.520080    6.048868    0.997476
C       1.638328    1.908227   -0.270150
C       2.611656    3.549923    1.286098
C       2.936477    0.042753    1.082908
C       3.261291    0.502281    2.364389
C       3.841571    1.765068    2.536407
O      -1.678296    3.537464    0.174097
O      -0.842114    4.974314    1.684281
O       1.604991    1.957820   -1.418864
O       3.169230    4.534330    1.023914
H      -1.102906    0.891695    1.108307
H       0.100119   -0.293160    3.013210
H       1.040523    1.441370    4.525587
H       0.486598    3.688930    3.636633
H      -1.274289    6.070855    0.023090
H      -2.414897    5.960920    1.085217
H      -1.196302    6.840400    1.431563
H       3.496769    0.305375    0.323256
H       2.481750   -0.720685    1.039038
H       2.970502    0.085505    3.194464
H       3.928167    2.137625    3.394191
H       4.521599    2.088765    1.870268
