25
4069742
W       8.927842    7.929230    6.737900
C       7.969455   13.082208   11.527727
H       7.918150   13.230928   12.464058
C       8.333510   11.889539   10.986865
C       8.709936   10.687110   11.793311
H       8.692239   10.914445   12.747090
H       9.611254   10.395759   11.544205
H       8.072088    9.963982   11.618840
C       8.309112   11.960570    9.548443
C       7.934693   13.213621    9.085124
C       8.552295   10.974424    8.548140
C       7.565784    6.805954    7.779495
C      10.495651    6.931487    7.611809
C      10.216298    9.092063    5.652880
C       7.302761    8.767858    5.837045
C       8.939284    6.554067    5.301998
O       6.771331    6.203059    8.325204
O      11.339799    6.326641    8.070281
O      10.924840    9.704417    5.007335
O       6.367221    9.152475    5.309753
O       8.955960    5.742471    4.488767
S       7.606057   14.306668   10.356441
S       7.818278   13.498203    7.390036
S       8.343554   11.548172    6.930691
S       8.970033    9.379640    8.807230
