29
4070876
Mn      0.955738    0.851547    5.879562
C       2.459354   -0.100985    6.010262
O       3.416555   -0.749930    6.000581
C       1.797877    2.026017    4.844340
O       2.345746    2.706520    4.076882
C      -0.956906    0.184183    6.579841
C      -1.144148    1.181987    5.576351
H      -1.583475    2.017410    5.688672
C      -0.552110    0.694848    4.378256
H      -0.524262    1.153298    3.546167
C      -0.012457   -0.582960    4.631513
H       0.439412   -1.133789    4.003140
C      -0.264888   -0.903130    5.997449
H      -0.012491   -1.705848    6.438905
C      -1.343165    0.328202    8.020943
H      -0.796141   -0.280578    8.578563
H      -2.295857    0.086641    8.140097
C      -1.119441    1.751750    8.447878
O      -2.024618    2.499386    8.738860
C       0.302859    2.254955    8.552939
C       0.565264    3.094396    9.627751
H      -0.134534    3.335383   10.224235
C       1.841375    3.578092    9.829901
H       2.040768    4.150725   10.561627
C       2.822663    3.198824    8.927913
H       3.714566    3.508665    9.034113
C       2.496611    2.369711    7.875167
H       3.187791    2.123560    7.271706
N       1.249449    1.883146    7.645969
