29
4070877
Re      3.020288    6.770111    8.233422
Br      2.000965    7.540575    6.006947
Br      3.876078    9.147428    8.600050
N       3.731907    6.245581    9.797248
O       4.229101    5.954821   10.764461
N       4.745296    6.293892    7.187562
C       5.656051    5.961542    6.611603
C       6.824698    5.545219    5.864844
H       6.789508    5.917594    4.981046
H       6.842801    4.586906    5.807248
H       7.616451    5.853806    6.311708
N       1.214167    7.290633    9.053468
C       0.195304    7.572369    9.478485
C      -1.123110    7.835400   10.034583
H      -1.688427    8.210474    9.355349
H      -1.044689    8.455135   10.764461
H      -1.506427    7.013915   10.352353
N       2.240233    4.912598    7.783380
C       1.765644    3.902424    7.617544
C       1.160149    2.587462    7.418938
H       1.800873    1.997502    7.014774
H       0.395601    2.669799    6.845959
H       0.887258    2.229050    8.266987
N       5.175039    7.484351    3.541150
C       4.669208    8.455500    3.591795
C       3.992500    9.750782    3.634495
H       3.134732    9.677130    3.207492
H       4.523664   10.403592    3.169756
H       3.875740   10.022588    4.545105
