28
4070477
C       0.135864    1.584443   -1.452867
C      -0.922113    0.682808   -1.736826
C      -1.482148    0.346340   -3.000388
C      -1.118661    0.828419   -4.290178
C      -0.105368    1.765428   -4.618613
C       0.780147    2.447413   -3.762174
C       0.895731    2.366793   -2.350361
C       1.845897   -1.855098   -2.148510
C       1.388508   -2.212133   -3.433739
C       2.162099   -1.513694   -4.375708
C       3.100074   -0.723118   -3.673223
C       2.911514   -0.934542   -2.286498
C       3.730922   -0.329887   -1.187155
Zr      0.831115    0.189705   -3.166943
H       0.423702    1.571281   -0.547391
H      -1.201757    0.156305   -1.037762
H      -2.030071   -0.304384   -3.033459
H      -1.614752    0.378424   -5.006348
H       0.065598    1.859212   -5.508123
H       1.431561    2.903990   -4.162454
H       1.586917    2.813497   -1.995697
H       1.512791   -2.163596   -1.379882
H       0.723811   -2.772364   -3.649274
H       2.065888   -1.546601   -5.348468
H       3.696377   -0.131626   -4.002798
H       3.368596   -0.427783   -0.364927
H       3.903055    0.501823   -1.322862
H       4.583747   -0.773300   -1.117590
