20
4071734
Re      2.284157    3.741591    2.650688
C       1.266803    5.468528    2.603933
O       0.758633    6.473520    2.516861
C       1.249673    3.080332    1.135216
O       0.616604    2.687121    0.271072
C       3.553120    4.584606    1.486788
O       4.319485    5.094602    0.800073
C       3.472932    2.108555    2.620361
O       4.204841    1.250347    2.516861
N       3.107885    4.278180    4.565507
O       0.924961    2.834977    4.081849
C       1.259581    3.029976    5.304794
H       0.722092    2.664622    5.998081
C       2.391776    3.762827    5.636652
C       3.010587    4.145324    6.842511
H       2.728497    3.923540    7.721441
C       4.109243    4.904961    6.492582
H       4.733078    5.306743    7.085654
C       4.124817    4.967103    5.084651
H       4.773738    5.437456    4.573722
