29
4072464
Au     20.327153   -0.033705    1.663374
Cl     22.318600   -1.031554    1.324568
N      17.727654    1.464058    2.294015
C      18.671931    0.880339    2.047608
C      16.454188    2.162519    2.507764
C      15.372264    1.107887    2.270183
H      15.426527    0.785930    1.346046
H      14.490211    1.504080    2.425824
H      15.505878    0.357461    2.886275
C      16.419819    2.629720    3.957963
H      16.414358    1.850245    4.551547
H      15.611225    3.163087    4.110220
H      17.211175    3.175998    4.144055
C      16.321845    3.263951    1.446374
H      15.382237    3.574611    1.472559
H      16.450840    2.829026    0.566369
C      17.211904    4.533220    1.453876
C      18.693850    4.235471    1.635850
H      19.208348    5.064167    1.538758
H      18.983724    3.589943    0.957678
H      18.843278    3.860257    2.528801
C      17.025620    5.163417    0.073407
H      17.504623    6.016321    0.036777
H      16.071641    5.317537   -0.089736
H      17.379540    4.559042   -0.611973
C      16.751416    5.542665    2.503792
H      16.962632    5.203763    3.398214
H      15.784070    5.676612    2.425824
H      17.211148    6.396376    2.359625
