26
4072701
Fe      1.850332    4.620937   10.053400
I       0.865847    1.381938   11.527347
C       2.749204    3.949784   11.735601
C       2.232701    2.867906   10.934222
C       2.846243    2.884713    9.684348
C       3.725863    3.966591    9.672179
C       3.699256    4.595549   10.889024
C       2.302350    4.377050   13.081084
C       2.839200    5.658850   13.604327
C       0.380334    5.960502   10.562215
C      -0.163559    4.851201    9.875566
C       0.414767    4.774240    8.641338
C       1.338212    5.814542    8.472718
C       1.317865    6.541691    9.654796
O       1.591768    3.707401   13.764255
H       2.685032    2.240717    8.936857
H       4.291669    4.241705    8.895137
H       4.257235    5.384621   11.142824
H       2.462779    5.831349   14.513484
H       3.836207    5.604889   13.659954
H       2.579384    6.403692   12.988951
H       0.155733    6.271885   11.485278
H      -0.856143    4.225782   10.235405
H       0.208949    4.076283    7.956428
H       1.899322    5.996771    7.664385
H       1.875844    7.349340    9.844276
