28
4073137
B       2.171053    3.715277    4.452460
Cr      0.599630    1.139977    6.015891
O       3.544398    3.575145    4.553856
O      -1.455782   -1.007243    6.359592
O       2.685152   -0.973811    6.401343
O       0.698989    0.508601    3.091075
C       4.357188    3.968510    3.538408
H       5.295878    3.857543    3.633840
C       3.895116    4.494894    2.434986
H       4.506166    4.745994    1.752056
C       2.492371    4.705448    2.223248
H       2.176001    5.094545    1.416556
C       1.607474    4.325598    3.226766
H       0.670892    4.453637    3.128353
C       1.329084    3.217346    5.675172
C      -0.093208    3.211655    5.643858
H      -0.555119    3.415807    4.780505
C      -0.836730    2.682425    6.687637
H      -1.815264    2.526644    6.559401
C      -0.198005    2.153196    7.819390
H      -0.729879    1.628946    8.484426
C       1.196400    2.153907    7.898419
H       1.655127    1.635348    8.620118
C       1.949536    2.695941    6.835257
H       2.936105    2.531623    6.815872
C      -0.670872   -0.172853    6.220919
C       1.880599   -0.141555    6.243285
C       0.651847    0.765391    4.228793
