22
4073193
Fe      1.998439    1.174925    2.282091
C       2.857421    2.781809    3.149454
C       2.266704    3.153972    1.908760
C       2.896344    2.401284    0.898240
C       3.857213    1.551374    1.495570
C       3.844238    1.768817    2.897947
C       0.718934    0.361708    3.635626
C       0.006869    0.847819    2.519563
C       0.477000    0.159946    1.386658
C       1.468397   -0.734916    1.803217
C       1.624090   -0.613650    3.190998
C       2.477347    3.285692    4.435060
N       2.179699    3.696534    5.454562
H       1.579824    3.777030    1.816690
H       2.686464    2.467144   -0.008982
H       4.396032    0.933542    1.048695
H       4.365504    1.362156    3.540188
H       0.610560    0.648148    4.500182
H      -0.625824    1.515830    2.507212
H       0.206064    0.303166    0.507506
H       1.984320   -1.305705    1.256413
H       2.243808   -1.093488    3.719836
