24
4073550
Mn      4.131852    4.978817    2.840510
C       3.931613    6.638486    2.279113
O       3.838230    7.720940    1.848492
C       5.817153    5.047692    2.270153
O       6.888291    5.113466    1.794736
N       4.505280    5.528783    4.752005
N       5.408498    4.961246    5.589548
H       5.942996    4.296928    5.371203
C       5.376065    5.558851    6.814795
H       5.918650    5.341797    7.564770
C       4.418954    6.523851    6.761329
H       4.163495    7.112059    7.462172
C       3.890635    6.477809    5.476691
H       3.193375    7.037829    5.157338
C       2.493219    4.302566    1.653123
H       2.091542    4.830638    0.973955
C       3.587949    3.421193    1.476828
H       4.049498    3.261456    0.661827
C       3.875619    2.817950    2.735455
H       4.561744    2.184640    2.913195
C       2.948113    3.335687    3.671840
H       2.906235    3.097020    4.590883
C       2.095019    4.262162    3.028798
H       1.393176    4.761105    3.430518
