29
4074642
N      -1.136295    2.953032    3.690190
H      -0.491743    3.252841    4.208200
Cr      2.327685    1.833167    1.299836
O       0.465977    2.928423   -0.782480
O       4.338688    1.303563   -0.850237
O       3.523894    4.572001    1.511776
B      -0.829954    1.934028    2.735039
C      -2.390894    3.481597    3.832260
H      -2.542662    4.152268    4.487241
C      -3.419725    3.067410    3.057065
H      -4.282372    3.446937    3.172907
C      -3.215397    2.070935    2.077143
H      -3.947105    1.791922    1.538004
C      -1.986290    1.495579    1.886259
H      -1.868188    0.826641    1.221806
C       0.637307    1.341169    2.690596
C       0.930927    0.205187    1.870230
H       0.248581   -0.098781    1.205778
C       2.226738   -0.329963    1.801745
H       2.440304   -1.006873    1.097221
C       3.280534    0.247819    2.549254
H       4.224913   -0.025995    2.367841
C       3.023640    1.353473    3.365249
H       3.784967    1.862975    3.763775
C       1.709036    1.888277    3.424991
H       1.580439    2.779732    3.857760
C       1.172252    2.492054    0.024771
C       3.551116    1.500085   -0.030600
C       3.053185    3.523016    1.440376
