29
4074601
Ti      9.878226    1.863842    5.357298
P      11.967788    3.237027    4.706979
Cl      9.707150    0.344363    3.743751
Cl      7.769456    1.858223    6.141045
Cl     10.996462    0.774141    6.941587
C      10.988165    3.956334    6.010452
C       9.680431    4.303827    5.592905
C       9.448256    3.933789    4.224077
C      10.575221    3.345769    3.638574
H      10.609296    3.080207    2.675112
C       8.158194    4.177589    3.494746
H       8.092452    5.125618    3.256047
H       7.405575    3.933647    4.072401
H       8.135283    3.632810    2.679797
C       8.665499    5.053076    6.405159
H       9.094426    5.421478    7.205468
H       7.946380    4.442866    6.671382
H       8.292283    5.783478    5.869083
C      11.557882    4.205895    7.356558
C      12.833312    4.760417    7.467708
H      13.330646    4.959198    6.681923
C      13.385032    5.025339    8.716836
H      14.253024    5.407965    8.780785
C      12.671169    4.733747    9.869453
H      13.047198    4.919370   10.721530
C      11.405496    4.169766    9.776925
H      10.918150    3.962806   10.565755
C      10.849628    3.906622    8.521590
H       9.982764    3.521862    8.461037
