15
4075767
Co      0.836572   11.161786    0.888989
N      -0.567896   11.871766   -0.017304
S       1.344098    9.985317   -0.744927
N       0.248292   10.306204   -1.945674
S      -0.829642   11.384604   -1.471424
C       1.407804   12.582630    2.274877
H       1.351525   13.549356    2.152481
C       2.502898   11.758325    1.907689
H       3.228840   12.027969    1.477193
C       2.166520   10.422826    2.243222
H       2.676029    9.679626    2.054001
C       0.858683   10.425830    2.795411
H       0.373069    9.679626    3.052865
C       0.402955   11.762919    2.827769
H      -0.491790   12.054474    3.130241
