19
4075901
N       2.272280    1.732250    9.618252
C       3.055449    1.732250    8.808590
Au      4.390895    1.732250    7.330783
Br      6.180996    1.732250    8.980126
C       1.242576    1.732250   10.684555
Br      5.980798    1.732250    5.539477
C       1.981190    1.732250   12.004188
H       2.531686    0.953430   12.053860
H       1.339605    1.732250   12.721127
Br      2.553666    1.732250    5.754559
C       0.455446    0.465629   10.487521
H       0.012871    0.489880    9.613285
H      -0.219802    0.386638   11.192870
H       1.060397   -0.304183   10.525603
H       2.531686    2.511070   12.053860
C       0.455446    2.998871   10.487521
H       0.012871    2.974620    9.613285
H      -0.219802    3.077862   11.192870
H       1.060397    3.768683   10.525603
