27
4075473
Pd      5.133451    8.291014    0.684673
Cl      5.733517   10.216566    1.825678
Cl      4.818548    9.477505   -1.334083
N       4.793358    7.280316    3.531497
N       5.970343    6.019506    2.236499
N       4.785410    6.533120   -0.313544
C       5.291000    7.206358    2.319011
C       5.170092    6.158800    4.270628
H       4.960277    5.989742    5.160885
C       5.875787    5.386799    3.475911
H       6.246826    4.563768    3.699995
C       6.558041    5.530268    1.038778
H       6.933235    4.649922    1.198590
H       7.279872    6.119229    0.768661
C       5.527357    5.446842   -0.074695
C       5.388312    4.305135   -0.820774
H       5.939974    3.570225   -0.676595
C       4.415922    4.276411   -1.783120
H       4.284628    3.499646   -2.277321
C       3.645819    5.353979   -2.027180
H       3.006488    5.339730   -2.702907
C       3.829180    6.477699   -1.250702
H       3.276952    7.214356   -1.380115
C       3.925487    8.339755    4.008328
H       4.337730    9.190652    3.841567
H       3.779711    8.233772    4.951566
H       3.084015    8.296533    3.548000
