14
4075571
Mn      0.000000    0.000000    8.816959
Cl      1.457116    0.155500    5.751079
O       0.000000    0.000000   11.800354
O      -2.674074    1.329373    8.675316
C       0.000000    0.000000   10.680919
C      -1.661131    0.832044    8.735436
C       0.828663    1.645116    8.612791
B       0.000000    0.000000    6.756286
O       1.344408    2.635708    8.434836
Cl     -1.457116   -0.155500    5.751079
O       2.674074   -1.329373    8.675316
C       1.661131   -0.832044    8.735436
C      -0.828663   -1.645116    8.612791
O      -1.344408   -2.635708    8.434836
