18
4075962
C       3.062667    5.278316    7.872705
C       2.236057    4.541337    8.314336
C       1.217116    3.571319    8.723118
C       6.097274    7.127494    5.872593
C       6.302465    6.831356    4.531276
H       5.699168    6.254224    4.076871
C       7.383372    7.371471    3.850581
H       7.503797    7.165352    2.930822
C       8.291825    8.210247    4.485653
H       9.031331    8.577895    4.014824
C       8.083711    8.493765    5.830619
H       8.694022    9.064166    6.283200
C       7.013326    7.967111    6.524089
H       6.896408    8.172388    7.445674
F      -0.009938    4.066844    8.825313
F       1.485443    3.055602    9.934864
F       1.181456    2.507074    7.916503
Hg      4.542440    6.272565    6.903599
