28
4075448
Cr      1.642489    5.016326    9.836278
S       2.027958    4.780420    7.480008
O       2.933776    2.286197   10.191681
O      -1.087687    3.806783    9.306577
O       1.193284    5.025445   12.784735
O       0.311318    7.746443    9.749639
O       4.280877    6.470717   10.190320
O       2.253142    7.346211    7.333039
C       2.460556    3.308252   10.039041
C      -0.059799    4.234554    9.513649
C       1.358657    5.024630   11.665115
C       0.813710    6.725823    9.742495
C       3.316990    5.911885   10.057639
C       2.212317    6.199680    6.639471
C       2.311337    6.245355    5.222737
H       2.308283    5.453037    4.736809
C       2.410328    7.419794    4.576005
H       2.468333    7.435083    3.648148
C       2.426064    8.640182    5.311191
C       2.347067    8.572992    6.693790
C       2.359711    9.691147    7.505750
H       2.313599    9.615090    8.431452
C       2.441847   10.918271    6.898255
H       2.448640   11.685967    7.422173
C       2.514822   11.035919    5.526088
H       2.560475   11.878899    5.135985
C       2.519483    9.911795    4.730232
H       2.585006    9.996625    3.806911
