25
4076921
Cr      4.522669    2.681575    4.860148
N       5.983150    2.681575    7.522657
O       2.637848    0.651837    5.965124
C       6.116406    1.994019    3.500478
C       4.898225    1.547805    3.017051
C       4.129904    2.681575    2.698372
C       5.385407    2.681575    6.371086
C       6.311275    1.441615    8.221588
C       3.356203    1.432283    5.517392
H       6.791676    1.480229    3.819157
H       4.631986    0.643578    2.895570
H       3.376600    2.681575    2.462899
H       7.242979    1.372966    8.428771
H       5.932383    1.448051    9.094419
H       6.070601    0.675757    7.713199
C       6.311275    3.921535    8.221588
H       7.242979    3.990184    8.428771
H       5.932383    3.915100    9.094419
H       6.070601    4.687393    7.713199
C       6.116406    3.369131    3.500478
C       4.898225    3.815345    3.017051
H       6.791676    3.882921    3.819157
H       4.631986    4.719572    2.895570
O       2.637848    4.711313    5.965124
C       3.356203    3.930867    5.517392
