30
4076102
Ti     12.166222    3.177619    7.705585
Cl     13.913113    1.748893    7.875278
Cl     10.594084    2.014898    6.580025
N      11.425376    3.463007    9.478191
C      12.053229    5.315415    8.400516
C      13.415164    5.084740    8.080437
H      14.140478    5.083641    8.693713
C      13.504607    4.858740    6.694945
H      14.302076    4.668481    6.214511
C      12.216205    4.960742    6.141723
H      11.989592    4.851316    5.225660
C      11.320024    5.255478    7.188899
H      10.383630    5.390199    7.098032
C      11.448049    4.912765    9.730199
H      10.516417    5.267850    9.813048
C      12.277212    5.307854   10.940401
H      11.856806    4.957168   11.753020
H      12.330326    6.285128   10.995267
H      13.179657    4.935173   10.853778
C      10.736892    2.595709   10.338916
C      10.904753    1.213448   10.187837
H      11.502291    0.877059    9.530070
C      10.199984    0.333502   10.998254
H      10.310974   -0.602119   10.882076
C       9.338878    0.802275   11.971699
H       8.867863    0.192458   12.526493
C       9.167760    2.164465   12.132525
H       8.573479    2.489582   12.798466
C       9.857997    3.063107   11.327138
H       9.733479    3.997628   11.446460
