25
4076647
Rh      7.916701    1.035171   -3.202134
C       6.453283    0.334019   -4.121218
O       5.572143   -0.097494   -4.686579
C       7.908187    2.478319   -4.370055
O       7.937828    3.335001   -5.114818
C       8.274501   -0.469588   -1.575058
H       7.664989   -1.161856   -1.460435
C       9.428839   -0.505356   -2.415439
H       9.729813   -1.236852   -2.903414
C      10.026506    0.766687   -2.370830
H      10.786521    1.028018   -2.839411
C       9.264748    1.591063   -1.480411
H       9.430963    2.485819   -1.289760
C       8.215415    0.809377   -0.941040
C       7.264253    1.268004    0.070209
O       7.227210    2.393517    0.525989
O       6.444725    0.284407    0.455974
C       5.549592    0.573429    1.564003
H       4.907340    1.254736    1.311094
H       6.051400    0.889564    2.331265
C       4.847238   -0.714190    1.890613
H       4.153739   -0.540546    2.546548
H       4.418884   -1.054555    1.089992
O       5.726302   -1.691441    2.395268
H       6.009920   -2.036422    1.803724
