26
4076293
B       5.893835    8.578064    6.756322
Mn      4.479964    6.820563    6.303238
O       4.649710    8.542817    7.512635
O       1.522990    6.820495    6.231952
O       4.556892    3.947973    5.724606
O       4.831293    7.497845    3.446009
C       4.599681    7.368778    8.281716
H       3.910469    7.166833    8.977383
C       5.739047    6.607142    8.037659
H       5.958728    5.739937    8.485505
C       6.528408    7.230004    7.025258
H       7.380233    6.882475    6.633393
C       6.201719    9.842518    5.911781
C       7.436072   10.001554    5.266611
H       8.086534    9.312285    5.324720
C       7.721243   11.154479    4.543035
H       8.567778   11.251706    4.123262
C       6.776881   12.160799    4.431401
H       6.974610   12.945932    3.934204
C       5.539481   12.020834    5.047108
H       4.884011   12.702440    4.959699
C       5.264816   10.878465    5.791554
H       4.424493   10.798777    6.227451
C       2.664095    6.804830    6.250612
C       4.530035    5.074335    5.937317
C       4.676513    7.244307    4.554657
