29
4076912
Cr      7.389416    9.014465    2.641645
S       5.700030    9.956055    4.130199
S       7.572316   12.316810    4.467204
O       6.646216   11.558792    1.202281
O      10.118205    9.990605    1.875129
O       8.665472    8.982783    5.394413
N       5.275527   11.949013    5.749599
C       7.067749    6.835458    2.864473
C       5.851245    7.413815    2.488923
C       6.018868    8.042237    1.240098
C       7.355608    7.836630    0.836332
C       7.992858    7.089304    1.845748
C       6.919222   10.635585    1.802404
C       9.073567    9.633109    2.195989
C       8.181699    9.017073    4.368124
C       6.161029   11.488257    4.855669
C       5.381617   13.290473    6.324123
C       4.107824   11.185129    6.192055
H       7.235372    6.401560    3.647861
H       5.127708    7.411989    2.981704
H       5.396470    8.518899    0.767971
H       7.709243    8.089955    0.087269
H       8.734785    6.883958    1.885019
H       6.231049   13.559312    6.254307
H       5.247943   13.246405    7.301540
H       4.703346   13.767917    6.033225
H       3.451478   11.460226    5.771416
H       4.321420   10.312900    6.292124
H       3.932421   11.342886    7.135728
