29
4077023
Pd      2.103022    8.667000    3.217000
Cl      3.683073   10.109420    4.084561
N       0.571755    9.782154    3.945329
H       0.754497   10.665032    3.825656
C       0.405483    9.499032    5.398126
H      -0.389797    9.945094    5.731407
H       1.170960    9.836467    5.888397
C       0.282348    8.019864    5.602727
H       0.003137    7.847680    6.516355
H       1.151352    7.608470    5.475334
C      -0.720772    7.378506    4.644061
H      -0.559206    6.422825    4.622186
H      -1.614089    7.517178    4.995358
C      -0.672929    7.906615    3.229868
H      -1.450171    7.574958    2.734450
N       0.571755    7.551846    2.488671
H       0.754497    6.668968    2.608344
C       0.405483    7.834968    1.035874
H      -0.389797    7.388906    0.702593
H       1.170960    7.497533    0.545603
C       0.282348    9.314136    0.831273
H       0.003137    9.486320   -0.082355
H       1.151352    9.725530    0.958666
C      -0.720772    9.955494    1.789939
H      -0.559206   10.911175    1.811814
H      -1.614089    9.816822    1.438642
C      -0.672929    9.427385    3.204132
H      -1.450171    9.759042    3.699550
Cl      3.683073    7.224580    2.349439
