22
4077821
Mn      5.991064    6.075965    8.450549
C       5.287556    7.987612    8.212268
C       5.341533    7.606609    9.538954
C       5.103906    8.054477   10.723954
C       4.878307    5.190198    9.551072
C       4.843062    5.734481    7.109880
C       8.007949    6.602372    8.923034
H       8.246129    7.358619    9.408919
C       7.885405    6.519997    7.548109
H       8.024502    7.219795    6.951531
C       7.531554    5.263082    7.211368
H       7.387828    4.956686    6.344466
C       7.417286    4.513915    8.346264
H       7.188305    3.614045    8.390542
C       7.712492    5.357429    9.443875
H       7.708124    5.119646   10.343402
F       4.085338    8.243831    7.610446
F       6.125586    8.942332    7.741414
F       4.642298    9.262955   11.038439
F       5.283944    7.390227   11.852558
O       4.170697    4.657570   10.273491
O       4.130649    5.515767    6.247639
