27
4077541
Rh      1.613454    3.569500    4.934300
O       2.834177    5.031567    4.173306
C       3.938779    4.818825    3.563174
C       4.486490    3.569500    3.264887
C       0.849871    2.074593    6.244141
C       0.122394    2.061743    5.080822
C       4.688440    6.068150    3.160034
H       5.205553    3.569500    2.999140
H       5.552080    5.926798    2.634868
H       4.943936    6.522190    3.990718
H       4.143023    6.565024    2.879825
H       1.538335    1.452073    6.452942
H       0.531647    2.440110    7.032342
H       0.259321    1.437795    4.411032
H      -0.775669    2.487228    5.085341
O       2.834177    2.107433    4.173306
C       3.938779    2.320175    3.563174
C       4.688440    1.070850    3.160034
H       5.552080    1.212202    2.634868
H       4.943936    0.616810    3.990718
H       4.143023    0.573976    2.879825
C       0.849871    5.064407    6.244141
C       0.122394    5.077257    5.080822
H       1.538335    5.686927    6.452942
H       0.531647    4.698890    7.032342
H       0.259321    5.701205    4.411032
H      -0.775669    4.651772    5.085341
