25
4078675
C       2.017714    4.858746    1.524639
C       0.760055    4.382191    1.151821
C      -0.239945    5.309193    0.833546
H      -1.101586    5.010107    0.566606
C       0.034278    6.665822    0.909907
H      -0.652969    7.290433    0.707135
C       1.302674    7.140064    1.279516
H       1.474351    8.073675    1.318017
C       2.302137    6.226281    1.588166
C       0.757324    2.936333    1.156955
H      -0.020736    2.440610    0.929799
C       1.948660    0.887344    1.487422
H       2.191564    0.575039    2.384495
H       2.630133    0.599825    0.845738
H       1.080229    0.507290    1.234598
C       3.685205    6.429527    1.982801
H       4.055546    7.300347    2.068145
C       5.776903    5.487654    2.641168
H       6.056949    6.424570    2.585983
H       6.345570    4.942358    2.058520
H       5.861001    5.175348    3.565833
Cl      5.102893    1.978430    2.417028
N       1.861448    2.348075    1.486138
N       4.388733    5.369672    2.213807
Pt      3.390604    3.614961    1.931428
