20
4078718
Fe     -0.153596    0.248689   10.329017
Br     -1.272441    1.687141   12.001949
S      -0.870663    1.567778    8.570999
S       1.532546    1.807176   10.052146
O       1.279614   -1.388439    8.389719
O      -2.640683   -1.333774   10.362482
O       1.098242   -0.982169   12.684297
N       0.908096    3.523004    8.090188
C       0.708745   -0.772740    9.143649
C      -1.678136   -0.746966   10.348676
C       0.617525   -0.534061   11.770098
C       0.572767    2.461116    8.793846
C       2.165861    4.217703    8.341398
H       1.995152    5.015737    8.846369
H       2.576151    4.449908    7.504782
H       2.754724    3.644322    8.837365
C       0.050799    4.043998    7.028324
H       0.513545    3.990772    6.188707
H      -0.168992    4.959394    7.215156
H      -0.754842    3.524443    6.984054
