28
4079588
Pd      1.402146    1.831610    3.596568
Br      3.019667    1.141315    5.289748
Br      0.095672    2.465819    1.610690
N       0.915039    3.628053    4.616459
N       1.095696    5.491050    5.773596
C       1.771710    0.141389    2.705675
C       0.808056   -0.868648    2.848895
C       0.803815   -2.171554    2.386382
C       1.750036   -2.838971    1.622779
C       2.910284   -2.330425    1.080336
C       3.421111   -1.046251    1.217440
C       2.952910    0.017296    1.951460
C       1.705271    4.361446    5.382194
C      -0.262905    4.332092    4.527426
C      -0.167631    5.478310    5.229872
C       1.686878    6.561855    6.576309
H       0.047129   -0.623347    3.339427
H       0.074684   -2.661603    2.653905
H       1.558641   -3.702384    1.469177
H       3.418944   -2.928723    0.563208
H       4.232535   -0.915585    0.765167
H       3.503841    0.769044    1.931406
H       2.544918    4.146951    5.650572
H      -0.928591    3.979213    4.093215
H      -0.720570    6.159039    5.366123
H       2.381560    6.210600    7.055748
H       1.061892    6.868327    7.202239
H       2.000798    7.223089    6.068711
