29
4079852
Au      6.465429    4.999784    4.303042
C       6.203443    6.207251    2.748669
C       6.443181    7.844512    1.230992
H       6.834849    8.535953    0.710278
C       5.168448    7.418254    1.170144
H       4.487075    7.746296    0.596774
C       8.510183    7.152089    2.559106
H       8.699061    6.436094    3.230768
C       9.362610    6.876102    1.329284
H       9.068383    6.041266    0.908032
H      10.302327    6.793601    1.594907
H       9.266826    7.614686    0.692725
C       8.833346    8.492738    3.201515
H       8.611465    9.216589    2.578998
H       9.788424    8.530060    3.417991
H       8.308123    8.595864    4.022956
C       3.802498    5.640545    2.396456
H       4.044404    4.861692    2.974507
C       3.160982    5.097410    1.103446
H       2.822004    5.844834    0.567520
H       2.419940    4.498293    1.333965
H       3.831912    4.603384    0.588583
C       2.843430    6.540203    3.183963
H       3.303921    6.897710    3.971470
H       2.065358    6.016712    3.469478
H       2.548981    7.280752    2.614102
Cl      6.585397    3.626920    6.159874
N       7.077536    7.076463    2.203382
N       5.045845    6.406630    2.109770
