21
4081834
C      -2.128416   -0.233603   13.209956
H      -1.444371   -0.342316   13.861193
C      -2.398141   -1.262492   12.326611
H      -1.912645   -2.077191   12.382973
C      -3.374428   -1.106541   11.360773
H      -3.564193   -1.819645   10.762567
C      -4.084093    0.093830   11.258681
H      -4.747894    0.205778   10.588358
C      -3.801536    1.125307   12.155860
H      -4.266236    1.951007   12.084511
C      -2.841894    0.955120   13.159103
H      -2.682064    1.642340   13.795864
C      -0.283788    2.365151   10.861201
C       0.706854    3.458750   10.637546
H       0.866171    3.933074   11.479901
H       0.356299    4.085789    9.970939
H       1.549361    3.075666   10.314234
O       0.033273    1.282552   11.433659
O      -1.497368    2.502983   10.510092
Cl     -1.281921   -0.202413    9.063127
Ru     -1.977490    0.537546   11.216678
