27
4081737
Ta      4.129796   -0.944579    9.385043
Cl      4.549962   -3.129159    8.645872
Cl      3.249085   -0.554000    7.223201
Cl      4.561972   -1.774788   11.565867
Cl      1.996251   -0.385155   10.170924
N       4.789760    0.967408    9.772065
C       6.011532    0.770762    9.342277
N       6.073656   -0.551513    8.921022
C       7.320278   -1.057820    8.271541
H       7.307853   -0.861174    7.302120
H       7.396898   -2.038791    8.392052
C       8.492351   -0.348086    8.943417
H       8.539979   -0.617062    9.894709
H       9.339308   -0.621582    8.506165
C       8.337041    1.164055    8.850635
H       9.045254    1.598032    9.390268
H       8.455076    1.446592    7.908942
N       6.988950    1.618375    9.340144
C       6.843994    2.967774    9.842452
H       7.376190    3.596137    9.292153
H       7.164968    3.022021   10.777746
C       5.346806    3.338463    9.773131
H       5.201850    4.195117   10.248777
H       5.087956    3.467300    8.827172
C       4.446008    2.248999   10.401282
H       4.597176    2.201532   11.378168
H       3.491369    2.461467   10.242378
