28
4082788
Fe      1.631101    9.627367    3.191827
S       6.691316    7.382060    4.028255
N       4.274392    8.377527    4.197147
H       4.690727    9.136185    4.040585
C       2.782175   10.644957    1.840612
H       3.776490   10.584188    1.753002
C       2.074903   11.550789    2.667224
H       2.483933   12.241083    3.263456
C       0.684703   11.306765    2.507418
H      -0.056410   11.795763    2.967368
C       0.537015   10.234768    1.576161
H      -0.327344    9.837873    1.267905
C       1.834580    9.829328    1.165694
H       2.044347    9.095356    0.519979
C       2.867447    8.447790    4.325316
C       2.190274    9.393502    5.147062
H       2.617877   10.086645    5.727069
C       0.788236    9.168469    4.994556
H       0.058370    9.678355    5.448828
C       0.613865    8.101219    4.068166
H      -0.262900    7.731860    3.761533
C       1.899845    7.655899    3.639853
H       2.086818    6.920029    2.990082
C       5.044110    7.283691    4.288813
C       4.379102    5.973367    4.620593
H       3.415911    6.115794    4.734161
H       4.756929    5.616352    5.450450
H       4.531229    5.336246    3.891325
