30
4082974
Br      1.123876    6.603681    4.114849
Cu      1.286552    7.641891    2.122261
N       1.284639   10.055936    0.256848
N       1.638513    8.139364   -0.627543
N       1.719616    6.078578    0.438725
C       2.010540   13.360741    1.125967
H       1.214553   13.721952    0.752496
H       2.759883   13.924122    1.281465
C       2.074519   12.083027    1.427244
H       2.884247   11.752816    1.797938
C       0.951012   11.118002    1.220377
H       0.715672   10.705575    2.088107
H       0.156974   11.611297    0.894110
C       1.380292    8.747222    0.580338
C       1.475501   10.272932   -1.102365
H       1.455689   11.108568   -1.552197
C       1.693301    9.063955   -1.657713
H       1.853971    8.880654   -2.575425
C       1.786939    6.717435   -0.733059
C       1.965946    6.102838   -1.950659
H       1.998175    6.610959   -2.753136
C       2.099217    4.703822   -1.977038
C       2.045542    4.025879   -0.760826
H       2.140342    3.081071   -0.734447
C       1.852520    4.740213    0.405404
H       1.811986    4.263091    1.225930
C       2.274452    3.997575   -3.291823
H       3.164266    4.194354   -3.652799
H       1.590848    4.304873   -3.922143
H       2.184000    3.029854   -3.158540
