29
4082698
Cr      7.887241    4.471111    2.540688
B       6.514222    3.019093    3.788427
N       5.771872    4.011001    3.020796
O       7.412070    7.438319    2.613408
O       9.490558    4.709408    5.066005
O      10.425416    4.986094    1.032033
C       7.588991    6.291528    2.565229
C       8.860445    4.626547    4.098425
C       9.439255    4.765940    1.606820
C       5.921030    4.171857    1.640532
H       5.469213    4.940736    1.188324
C       6.818475    3.402979    0.926892
H       7.012962    3.643046   -0.024541
C       7.656826    2.460411    1.582279
H       8.427699    2.059931    1.087574
C       7.559579    2.285616    2.963059
H       8.275762    1.773399    3.437097
C       6.260143    2.860892    5.326402
H       6.083061    1.907261    5.523122
H       7.083017    3.120872    5.812453
C       5.094314    3.696148    5.854302
H       4.245174    3.211589    5.698787
H       5.197943    3.826692    6.830278
C       5.037580    5.054685    5.162620
H       4.322650    5.603409    5.570913
H       5.898053    5.527075    5.291915
C       4.765323    4.893165    3.674245
H       3.861935    4.508172    3.546888
H       4.780395    5.782630    3.240765
