28
4082335
Cr      6.297746    5.662986    4.229018
O       6.369561    6.095938    7.190422
O       9.291285    5.755691    4.364273
N       6.204751    3.563507    4.345034
C       8.129595    5.684675    4.297065
C       4.272081    5.573148    3.320039
H       3.595839    4.916160    3.434292
C       6.865300    2.780323    3.469576
H       7.437368    3.194087    2.835307
C       5.415901    2.934526    5.237967
H       4.946554    3.460817    5.873916
C       6.338815    5.887889    6.050335
C       6.244730    6.383506    2.123750
H       6.863304    6.306488    1.406312
C       5.375434    7.614297    4.041678
H       5.426022    8.348636    4.642343
C       4.325247    6.675075    4.162651
H       3.654012    6.798271    4.822962
C       6.344302    7.466595    3.036089
H       7.061492    8.086908    2.966361
C       5.238754    5.435783    2.281687
H       5.195886    4.691107    1.692783
C       5.927771    0.772349    4.365953
H       5.829408   -0.173374    4.369313
C       5.254128    1.565869    5.276611
H       4.682249    1.170276    5.924321
C       6.750502    1.404331    3.451094
H       7.234002    0.893544    2.812625
