24
4083832
B       0.005158    7.244477    3.650311
N      -1.347445    7.546416    3.173770
Cr     -1.189150    5.364355    2.863364
C      -2.089738    8.351908    4.165494
H      -2.910381    7.884999    4.463848
H      -2.335537    9.236966    3.796507
C      -1.101364    8.487105    5.289310
H      -1.290240    8.960663    6.090923
C       0.068498    7.880566    5.060328
H       0.807195    7.845844    5.657495
C       0.822137    6.414901    2.687826
H       1.658666    5.961216    2.995009
C       0.297540    6.150122    1.415520
H       0.780410    5.497262    0.831310
C      -1.003881    6.565242    1.027729
H      -1.391680    6.211662    0.176582
C      -1.840903    7.221501    1.930015
H      -2.805278    7.368592    1.711925
O      -0.879117    4.398031    5.690977
O      -4.019083    4.402538    2.961986
O      -0.552720    2.697138    1.668009
C      -0.974796    4.755453    4.600642
C      -2.936377    4.808645    2.931027
C      -0.795596    3.722639    2.156132
