21
4083079
Au      5.675855    1.584240   19.261882
Cl      6.159871    1.632015   17.019475
O       8.278965    0.577894   23.116954
H       7.653838    0.080263   22.942656
N       4.087084    1.131327   21.734323
N       5.947840    2.080724   22.212173
C       5.214261    1.605261   21.205555
C       5.270315    1.888093   23.402880
H       5.571302    2.115122   24.252826
C       4.104144    1.315550   23.099328
H       3.429056    1.083933   23.696640
C       7.311420    2.582177   22.098586
H       7.519795    3.122615   22.876070
H       7.380878    3.147076   21.313267
C       8.320396    1.441677   21.990874
H       8.135173    0.927994   21.189888
H       9.212389    1.813181   21.906662
C       3.020835    0.462468   21.011674
H       2.584587    1.090049   20.431987
H       2.383523    0.109311   21.638362
H       3.387625   -0.255313   20.490739
