30
4083197
Ag     -1.481116    8.623540    0.139565
Cl     -0.458979   10.733443   -0.055350
S      -2.809009    8.395978    2.970314
N      -2.767152    5.937415   -0.682147
N      -2.897621    6.148767    1.432401
N      -2.901502    5.924907    3.768567
C      -2.499099    6.812621    0.302696
C      -3.338017    4.763343   -0.191347
H      -3.610980    4.019338   -0.696201
C      -3.422691    4.898413    1.122138
H      -3.770641    4.269969    1.728611
C      -2.553984    6.180478   -2.105900
H      -1.875324    5.557649   -2.442109
H      -2.215183    7.091166   -2.232384
C      -3.806979    6.009796   -2.887505
H      -4.510356    6.609440   -2.717779
C      -3.997649    5.112784   -3.766405
H      -3.317397    4.494777   -3.963157
H      -4.819989    5.067418   -4.220449
C      -2.857582    6.681929    2.721022
C      -2.827592    8.090698    4.679898
C      -2.800909    9.018654    5.714470
H      -2.776816    9.943089    5.544744
C      -2.811714    8.522861    7.002010
H      -2.797405    9.122329    7.725238
C      -2.840928    7.171410    7.251734
H      -2.831561    6.868697    8.141445
C      -2.885169    6.254385    6.231216
H      -2.923397    5.332971    6.412834
C      -2.871972    6.725230    4.911245
