25
4083805
Pt      0.146782    7.484005    8.776202
Cl     -0.169931    6.985200   11.006121
Cl      1.439733    9.285765    9.381086
N       0.315835    7.973589    6.829515
C       1.460512    8.539077    6.332759
H       2.254429    8.492460    6.852892
C       1.506794    9.165370    5.123013
H       2.317752    9.547430    4.806258
C       0.345053    9.235296    4.360931
H       0.330867    9.718698    3.542745
C      -0.784451    8.592788    4.812102
H      -1.573803    8.592788    4.283788
C      -0.770489    7.949266    6.030030
N      -1.915215    7.288517    6.456656
H      -2.686438    7.621932    6.194837
C      -1.961693    6.146392    7.258478
C      -2.979258    5.227220    7.011854
H      -3.625554    5.392408    6.335097
C      -3.032671    4.086109    7.756403
H      -3.735095    3.460829    7.621987
C      -2.055999    3.841875    8.711343
H      -2.053915    3.030126    9.205761
C      -1.087143    4.802597    8.927578
H      -0.416270    4.641464    9.580958
N      -1.064682    5.961950    8.240301
