30
4084567
Au      0.334279   18.056311    3.256712
C       0.199180   20.053909    2.862424
F       0.482883   20.405679    1.579574
F      -0.992823   20.644248    3.067228
F       1.074926   20.831683    3.556662
C       0.610145   16.080226    3.606654
N       1.414135   15.549308    4.554882
N       0.169148   15.025620    2.898708
C       1.457554   14.178021    4.450061
H       1.942845   13.580629    5.007226
C       0.675411   13.847233    3.404268
H       0.506756   12.970541    3.077710
C       2.122339   16.310331    5.584548
H       2.059559   17.276421    5.375712
H       3.079399   16.058009    5.575679
C       1.554325   16.061183    6.964962
C       0.263261   16.487010    7.268137
H      -0.267640   16.913190    6.604539
C      -0.244993   16.285469    8.546149
H      -1.123466   16.581697    8.754985
C       0.512613   15.662157    9.512922
H       0.157467   15.527268   10.383744
C       1.793721   15.233332    9.209747
H       2.318622   14.804331    9.874958
C       2.312649   15.428172    7.937380
H       3.189981   15.127008    7.731769
C      -0.755475   15.095269    1.774703
H      -1.124826   16.001584    1.711004
H      -1.484567   14.453442    1.911776
H      -0.280595   14.876625    0.946616
