29
4084063
Au     -0.829806    8.419530    8.522920
Cl     -1.898125   10.230407    9.502751
P       0.205582    6.888015    7.285534
O       1.800932    6.927524    7.364671
H       1.976017    6.972208    8.170923
C      -0.066981    7.199863    5.531708
C       0.727535    7.251092    3.256149
H       1.426316    7.120316    2.626403
C      -1.554527    7.833546    3.741023
H      -2.415579    8.101502    3.442411
C      -0.519713    7.667204    2.825478
H      -0.669967    7.840190    1.903034
C      -0.266053    5.134625    7.592424
C      -1.329497    7.607327    5.091182
H      -2.033718    7.729859    5.716985
C       0.960127    7.026012    4.604336
H       1.821096    6.751819    4.898020
C      -1.755132    4.956322    7.308595
H      -1.936713    5.169137    6.369397
H      -2.271415    5.557028    7.885123
H      -2.013242    4.028618    7.489930
C       0.008695    4.828452    9.071685
H      -0.225651    3.896095    9.261890
H      -0.532145    5.422881    9.633430
H       0.958570    4.972148    9.264847
C       0.561446    4.216183    6.698560
H       1.512966    4.328935    6.905519
H       0.401820    4.444306    5.759362
H       0.301135    3.284850    6.857228
