29
4084129
Pt      1.281849    8.048893    3.726754
I       3.448725    7.506330    2.361467
I       0.246819    9.130657    1.579253
C       1.574748    6.596075    5.430390
C       2.381396    7.712366    5.574672
H       3.183260    7.735190    5.066515
C       2.100845    8.905428    6.472074
H       2.302308    8.650216    7.406735
H       2.717594    9.639939    6.223148
C       0.680174    9.428300    6.409446
H       0.131672    8.946926    7.078534
H       0.680473   10.386899    6.652030
C       0.044942    9.266459    5.046696
H       0.160960    9.973996    4.422003
C      -0.691917    8.168842    4.638425
H      -1.057218    8.187516    3.761635
C      -0.956916    6.950882    5.475578
H      -1.295248    6.226745    4.891315
H      -1.664647    7.162520    6.135152
C       0.279303    6.452908    6.217599
H       0.365063    6.957106    7.065849
H       0.149964    5.498459    6.446706
C       2.147910    5.284745    4.947601
H       2.297010    4.699626    5.732431
H       3.031170    5.459036    4.535367
C       1.291409    4.535710    3.947933
H       1.742487    3.705754    3.687909
H       1.152574    5.093855    3.154383
H       0.424621    4.324071    4.353825
