17
4084216
C       1.968465    2.838528    6.187009
C       3.261347    3.565133    5.872570
C       4.025294    3.559628    4.751526
H       3.780254    3.026602    4.004163
C       5.184062    4.354123    4.713550
H       5.730545    4.350453    3.935807
C       5.544415    5.154122    5.811809
H       6.314003    5.710084    5.782947
C       4.738479    5.105498    6.938929
C       4.873219    5.880726    8.240738
N       3.662435    4.323848    6.916144
O       1.445797    3.073391    7.406790
O       1.438903    2.111006    5.383442
O       3.950090    5.606415    9.161270
O       5.739945    6.691734    8.426059
Cl      1.234599    4.354215   10.331379
Au      2.555808    4.325958    8.498973
