22
4086542
Co      8.621901    2.233500    6.180702
I       5.136586    2.233500    4.942037
C       7.680672    2.233500    7.966365
H       6.742191    2.233500    8.110916
C       8.513861    3.369011    7.839023
H       8.232317    4.275812    7.872292
C       9.819724    2.925885    7.654319
H      10.583099    3.480686    7.546479
C       9.397407    2.940179    4.443222
H      10.161927    3.495874    4.350296
C       8.052632    3.389560    4.608423
H       7.764220    4.292787    4.654312
C       7.222876    2.233500    4.691023
C       9.397407    1.526821    4.443222
H      10.161927    0.971126    4.350296
C       8.052632    1.077440    4.608423
H       7.764220    0.174213    4.654312
C       8.513861    1.097989    7.839023
H       8.232317    0.191188    7.872292
C       9.819724    1.541115    7.654319
H      10.583099    0.986314    7.546479
I       1.693159    2.233500    5.376838
