26
4086360
Ti     -1.339939    8.596278    5.048365
C       0.904952    8.741999    5.774481
C       0.721315    7.544552    5.071430
Cl     -1.973520    6.852693    6.254271
Cl     -1.978286   10.365205    6.283103
Cl     -2.750423    8.654566    3.334872
C       1.250916    8.565866    7.255250
H       2.224346    8.579805    7.367620
H       0.897091    7.710547    7.574617
H       0.852925    9.298273    7.772743
C       1.043047    6.058196    5.211893
H       2.004877    5.920078    5.104698
H       0.559278    5.552607    4.524366
H       0.763286    5.747747    6.099762
N       0.379345    9.163956    3.684549
C       0.361033    7.846131    3.681592
H       0.310680    7.223965    2.897221
B       0.804940    9.813999    4.887351
C       0.194816    9.806396    2.344243
H       1.065415    9.895096    1.902156
H      -0.205562   10.693394    2.458830
H      -0.395330    9.250122    1.793482
C       0.944934   11.304156    5.426282
H       1.857762   11.624742    5.266599
H       0.756692   11.323163    6.388080
H       0.309602   11.883239    4.956842
