28
4086543
Co      7.790719    3.350666    6.456458
Br     11.278845    3.599368    6.073342
C       7.409609    5.331870    6.229025
H       7.787389    5.905342    5.572448
C       6.218642    4.572375    6.098725
H       5.652613    4.549862    5.335538
C       6.018867    3.853165    7.305271
H       5.301725    3.259550    7.496490
C       7.076651    4.179001    8.162544
H       7.199589    3.848425    9.044862
C       7.924415    5.077125    7.498183
H       8.720954    5.451541    7.855239
C       8.809316    2.639868    4.830075
H       8.945061    3.094854    4.007153
C       7.722078    1.789139    5.154472
H       7.003656    1.564015    4.574044
C       7.885996    1.331783    6.476088
H       7.295635    0.750016    6.941445
C       9.076964    1.886297    6.988827
H       9.431693    1.752408    7.860315
C       9.649396    2.684893    5.958271
P      15.202634    6.007003    6.128677
F      14.502908    6.398244    7.501905
F      15.910683    5.613393    4.761202
F      13.900381    5.208645    5.692933
F      16.516539    6.830718    6.506040
F      15.814765    4.716928    6.801500
F      14.609455    7.307980    5.439440
