22
4086777
Co      4.171091    5.990782    3.050094
O       6.676771    6.791754    1.874256
N       3.623518    3.159722    2.174944
C       3.525665    4.488836    1.949648
O       4.305160    5.310387    5.838423
N       2.906434    4.564450    0.747774
C       3.070495    2.432399    1.141385
H       3.018428    1.486210    1.079144
N       5.686679    6.437962    2.338876
O       2.294295    8.177827    2.828917
C       2.622540    3.315712    0.243706
H       2.192280    3.119548   -0.580336
C       4.237939    2.544172    3.343505
H       3.978378    1.600064    3.389967
H       3.935642    3.005735    4.153521
H       5.212957    2.612081    3.274251
C       2.999415    7.284953    2.878886
C       4.236705    5.519944    4.715447
C       2.563276    5.797572    0.058735
H       2.311431    5.594590   -0.866997
H       3.336167    6.399916    0.062241
H       1.810620    6.228049    0.514588
