19
4087187
Au      3.285227    4.151694    4.732497
Br      4.685291    4.681701    6.613189
N       2.639112    3.013115    2.040965
N       0.847730    3.387438    3.140901
C       2.180477    3.527328    3.205457
C       1.592835    2.565319    1.254705
H       1.657491    2.162654    0.396440
C       0.467059    2.813237    1.943303
H      -0.421112    2.628203    1.661905
C      -0.105660    3.892523    4.138209
H       0.385125    4.292883    4.886397
H      -0.655861    3.151754    4.468438
H      -0.682169    4.569147    3.726043
C       4.040308    2.997818    1.634593
H       4.073881    2.471385    0.842539
H       4.540711    2.639382    2.325673
C       4.541523    4.336949    1.282845
C       4.967947    5.401897    0.998136
H       5.310666    6.258407    0.768879
