25
4088622
Ti      9.377548    1.600516    3.066505
Cl      7.305258    0.841242    3.530719
Cl     10.261310    1.826600    5.140282
Cl      8.689026   -0.950313    0.124409
Cl     13.114834    0.222223    2.984667
O      10.230467    0.149582    2.403034
C       8.330448    3.089264    1.581097
C       9.482909    2.577787    0.941771
C      10.618617    3.004018    1.683522
C      10.167011    3.793092    2.765078
C       8.746413    3.833165    2.713992
C      10.981685   -0.481969    1.483502
C      10.401588   -1.108929    0.366745
C      11.166338   -1.844087   -0.526228
C      12.540177   -1.938076   -0.342219
C      13.149483   -1.293265    0.728662
C      12.374014   -0.581423    1.632437
H       7.410810    3.016404    1.249171
H       9.501714    2.096911    0.087683
H      11.553696    2.869955    1.424538
H      10.734081    4.290725    3.390426
H       8.180369    4.220780    3.366281
H      10.740904   -2.249917   -1.225026
H      13.066790   -2.459754   -0.949268
H      14.104255   -1.333338    0.859043
