30
4088117
Pd      7.900125    8.365359    3.612261
Cl      5.918235    8.049151    4.740082
N       7.054801    9.521810    2.037157
O      11.213289    6.663578    1.079920
N       9.554949    8.726807    2.449745
C       8.839505    7.236022    5.067496
H       8.780767    6.286529    4.832289
H       8.400975    7.386739    5.930963
H       9.781185    7.500151    5.128446
C       5.791266    9.905193    1.853523
H       5.156200    9.731157    2.538046
C      11.195528    6.879274    2.489598
H      12.062665    6.610615    2.885777
H      10.480290    6.337526    2.907656
C      11.366477    5.277932    0.775167
H      12.217181    4.955840    1.137745
H      11.357941    5.154826   -0.196917
H      10.628236    4.772320    1.175253
C      10.945432    8.349653    2.739652
H      11.149638    8.559601    3.685167
H      11.553252    8.885083    2.170779
C       7.958844    9.803624    1.070543
C       9.326556    9.375326    1.377640
H      10.037163    9.579596    0.781418
C       7.614697   10.445281   -0.104710
H       8.271480   10.629899   -0.766571
C       6.280232   10.816144   -0.299283
H       6.006587   11.243010   -1.102581
C       5.371596   10.548174    0.701713
H       4.461893   10.803274    0.601692
