21
4088028
Fe      4.293470    2.564751    0.730325
C       2.671758    3.576635    1.403755
F       2.663211    4.738828    2.103991
C       2.613927    3.493308   -0.003282
H       2.594208    4.215472   -0.620366
C       2.592456    2.100258   -0.309636
H       2.550419    1.724220   -1.180555
C       2.644257    1.367411    0.910307
H       2.645388    0.419838    0.989084
C       2.694151    2.290414    1.988014
H       2.734387    2.085302    2.914733
C       5.970348    3.573430    1.268084
F       6.037898    4.741605    1.954316
C       5.984124    2.292550    1.865473
H       6.011378    2.094917    2.794380
C       5.949374    1.358865    0.789954
H       5.956144    0.412360    0.875295
C       5.902909    2.084234   -0.436554
H       5.869472    1.702854   -1.306378
C       5.914206    3.477284   -0.140047
H       5.889902    4.195175   -0.762601
