25
4088624
Ti      0.852237    0.373566    7.389166
Cl      1.879196    0.624139    9.374478
Cl     -1.328990    0.198760    7.957516
Cl     -0.521374   -2.321410    4.931779
Cl      0.715378   -4.506237    3.026472
Cl      3.756057   -5.185587    3.216207
Cl      5.544687   -3.720542    5.294857
Cl      4.272267   -1.594833    7.237231
O       1.371462   -1.293127    6.895805
C       1.795575    2.466658    6.856659
C       0.423006    2.534610    6.576521
C       0.134336    1.610462    5.539153
C       1.356899    0.973412    5.189286
C       2.364562    1.483052    6.001564
C       1.915665   -2.140488    6.022361
C       3.304678   -2.442874    6.098206
C       3.860580   -3.380612    5.217422
C       3.064261   -4.024457    4.279142
C       1.689782   -3.713577    4.180054
C       1.138523   -2.763948    5.052275
H       2.287170    3.049346    7.471984
H      -0.209665    3.175057    6.963087
H      -0.723619    1.511932    5.075518
H       1.484135    0.351652    4.441843
H       3.320250    1.280895    5.920826
