28
4088939
Re      6.222606    0.986737    1.309465
S       4.678666    2.624572    1.675172
S       4.598743   -0.438257    2.224024
S       7.620158    0.008383    2.834959
O       6.440773    0.552051   -0.301878
C       3.080633    1.796185    2.039037
H       2.468549    2.438899    2.478467
H       2.660707    1.502772    1.192186
C       3.286297    0.597538    2.941179
H       2.446506    0.079175    3.011993
H       3.547596    0.895764    3.848172
C       5.321358   -1.286826    3.669684
H       5.226926   -0.724994    4.479672
H       4.857877   -2.147038    3.828771
C       6.778543   -1.526679    3.366059
H       6.855928   -2.206031    2.651135
H       7.226599   -1.881569    4.174108
C       7.556478    2.610445    1.502989
C       7.737893    3.345685    2.682856
H       7.241406    3.106452    3.456274
C       8.622969    4.413771    2.752990
H       8.730595    4.887113    3.569769
C       9.351882    4.791792    1.631617
H       9.955118    5.525170    1.675269
C       9.189024    4.086669    0.449131
H       9.682421    4.342203   -0.321085
C       8.309955    3.008027    0.377639
H       8.216520    2.533598   -0.440401
