25
4100141
Pt      0.000000    0.000000    0.000000
Cl      0.660596   -3.150086   -4.513502
Cl      0.296814    1.665236   -1.558591
N       1.131549   -1.255352   -1.097166
C       0.681357   -1.669232   -2.303484
H      -0.126980   -1.309132   -2.648723
C       1.374423   -2.603057   -3.039240
C       2.585679   -3.104633   -2.590509
H       3.077997   -3.736155   -3.101496
C       3.054806   -2.645240   -1.356702
H       3.887711   -2.953612   -1.018740
C       2.307202   -1.746372   -0.633882
H       2.623570   -1.460276    0.215067
Cl     -0.660596    3.150086    4.513502
Cl     -0.296814   -1.665236    1.558591
N      -1.131549    1.255352    1.097166
C      -0.681357    1.669232    2.303484
H       0.126980    1.309132    2.648723
C      -1.374423    2.603057    3.039240
C      -2.585679    3.104633    2.590509
H      -3.077997    3.736155    3.101496
C      -3.054806    2.645240    1.356702
H      -3.887711    2.953612    1.018740
C      -2.307202    1.746372    0.633882
H      -2.623570    1.460276   -0.215067
