25
4100143
Pt      0.000000    0.000000    0.000000
Cl      0.935448   -1.462171   -1.525053
N       0.037653   -1.415051    1.401083
C       0.656844   -1.203869    2.600427
H       1.053059   -0.359375    2.780984
C       0.714400   -2.203819    3.555665
Br      1.498940   -1.840144    5.233637
C       0.194406   -3.459544    3.285334
H       0.283599   -4.165017    3.915771
C      -0.459038   -3.673067    2.076912
H      -0.863720   -4.510035    1.881224
C      -0.501639   -2.633673    1.169083
H      -0.936985   -2.781423    0.336906
Cl     -0.935448    1.462171    1.525053
N      -0.037653    1.415051   -1.401083
C      -0.656844    1.203869   -2.600427
H      -1.053059    0.359375   -2.780984
C      -0.714400    2.203819   -3.555665
Br     -1.498940    1.840144   -5.233637
C      -0.194406    3.459544   -3.285334
H      -0.283599    4.165017   -3.915771
C       0.459038    3.673067   -2.076912
H       0.863720    4.510035   -1.881224
C       0.501639    2.633673   -1.169083
H       0.936985    2.781423   -0.336906
