25
4100144
Pt      0.000000    0.000000    0.000000
Cl     -2.190157   -0.566198    0.429504
N       0.279310    0.377045    1.964011
C       1.320698   -0.143756    2.638852
H       1.944385   -0.688937    2.173173
C       1.511104    0.090373    3.987219
I       3.167868   -0.691501    5.000665
C       0.572880    0.845304    4.696263
H       0.649799    0.973507    5.634200
C      -0.473952    1.398471    3.980642
H      -1.116094    1.938608    4.426589
C      -0.593267    1.170647    2.615174
H      -1.301344    1.580899    2.132393
Cl      2.190157    0.566198   -0.429504
N      -0.279310   -0.377045   -1.964011
C      -1.320698    0.143756   -2.638852
H      -1.944385    0.688937   -2.173173
C      -1.511104   -0.090373   -3.987219
I      -3.167868    0.691501   -5.000665
C      -0.572880   -0.845304   -4.696263
H      -0.649799   -0.973507   -5.634200
C       0.473952   -1.398471   -3.980642
H       1.116094   -1.938608   -4.426589
C       0.593267   -1.170647   -2.615174
H       1.301344   -1.580899   -2.132393
