25
4100148
Pd      1.798965    4.309104   -5.058620
Cl      0.619805    2.941697   -6.515199
N       1.807744    2.833018   -3.688745
C       1.178060    2.988033   -2.505028
H       0.727678    3.803173   -2.318871
C       1.178634    1.977684   -1.557043
I       0.322306    2.291479    0.328608
C       1.815216    0.771388   -1.845384
H       1.796192    0.054997   -1.222163
C       2.470758    0.635970   -3.046301
H       2.928114   -0.169242   -3.255728
C       2.456372    1.688262   -3.946735
H       2.920070    1.595844   -4.771290
Cl      2.978125    5.676512   -3.602041
N       1.790186    5.785191   -6.428494
C       2.419870    5.630175   -7.612211
H       2.870252    4.815035   -7.798368
C       2.419296    6.640524   -8.560196
I       3.275624    6.326729  -10.445847
C       1.782714    7.846821   -8.271855
H       1.801738    8.563211   -8.895077
C       1.127173    7.982238   -7.070939
H       0.669816    8.787450   -6.861512
C       1.141558    6.929947   -6.170504
H       0.677860    7.022365   -5.345949
