25
4100146
Pd     -0.522002    6.860500    5.991805
Cl      0.595399    6.347060    7.953282
N      -0.503849    8.802021    6.510695
C       0.057011    9.721329    5.675437
H       0.448236    9.440048    4.856957
C       0.054738   11.060498    6.015772
Cl      0.758844   12.187404    4.896503
C      -0.522685   11.510547    7.211736
H      -0.533656   12.431226    7.445417
C      -1.071132   10.548705    8.030217
H      -1.454224   10.801171    8.863078
C      -1.069012    9.205419    7.646741
H      -1.485714    8.563276    8.209971
Cl     -1.639403    7.373940    4.030328
N      -0.540155    4.918979    5.472914
C      -1.101015    3.999672    6.308172
H      -1.492240    4.280952    7.126653
C      -1.098742    2.660502    5.967838
Cl     -1.802848    1.533596    7.087107
C      -0.521320    2.210453    4.771873
H      -0.510348    1.289774    4.538193
C       0.027128    3.172295    3.953393
H       0.410220    2.919829    3.120532
C       0.025008    4.515581    4.336868
H       0.441710    5.157724    3.773639
