25
4100147
Pd      1.974800    6.962000    0.000000
Cl      0.840814    7.489580   -1.952417
N       1.968785    5.012640   -0.523687
C       1.407806    4.100618    0.291872
H       1.003305    4.379098    1.106230
C       1.418648    2.754167   -0.050447
Br      0.681006    1.512564    1.174934
C       1.987211    2.332270   -1.232347
H       1.989214    1.413286   -1.476174
C       2.556929    3.294418   -2.055113
H       2.957999    3.041002   -2.877879
C       2.538113    4.621376   -1.673157
H       2.938266    5.271626   -2.237683
Cl      3.108786    6.434420    1.952417
N       1.980815    8.911360    0.523687
C       2.541794    9.823382   -0.291872
H       2.946295    9.544902   -1.106230
C       2.530952   11.169833    0.050447
Br      3.268594   12.411436   -1.174934
C       1.962389   11.591730    1.232347
H       1.960386   12.510714    1.476174
C       1.392671   10.629582    2.055113
H       0.991601   10.882998    2.877879
C       1.411487    9.302624    1.673157
H       1.011334    8.652374    2.237683
