26
4100555
Mn     -0.804938    2.271800    8.679571
S       1.059271    2.271800    5.125235
O      -2.323571    2.271800   11.188754
O      -2.429988    0.024808    7.640651
C       1.039453    0.989596    6.270729
C       1.009073    1.547550    7.553571
C       0.960026    1.109547    8.933587
H       0.900396    0.211732    9.239356
C       1.017625    2.271800    9.743032
H       1.085905    2.271800   10.690024
C       1.014945   -0.440729    5.886787
H       1.739432   -0.915081    6.345934
H       1.133583   -0.521605    4.918025
H       0.154191   -0.833296    6.144068
C      -1.812510    0.917807    8.035083
C      -1.720324    2.271800   10.204159
C       1.039453    3.554004    6.270729
C       1.009073    2.996050    7.553571
C       0.960026    3.434053    8.933587
H       0.900396    4.331868    9.239356
C       1.014945    4.984329    5.886787
H       1.739432    5.458681    6.345934
H       1.133583    5.065205    4.918025
H       0.154191    5.376896    6.144068
O      -2.429988    4.518792    7.640651
C      -1.812510    3.625793    8.035083
