24
4101685
Zn      5.907579    2.146675    2.276476
Cl      4.833203    1.522706    0.355473
Cl      4.893401    1.008968    3.949572
Cl      8.111176    1.946342    2.212710
N       5.457034    4.144642    2.508277
C       5.902103    4.927952    1.322426
H       5.404580    4.636545    0.542534
H       6.842202    4.752621    1.158536
N       4.273335    6.693443    1.877205
H       4.178869    7.574159    2.037328
H       3.750807    6.485643    1.174548
C       4.058212    4.449037    2.838884
H       3.810666    3.959570    3.638556
H       3.489880    4.141395    2.115506
C       3.802561    5.932861    3.069649
H       4.334488    6.217775    3.842007
C       5.698060    6.418270    1.518341
H       6.280808    6.738088    2.224766
H       5.926490    6.889068    0.700773
C       2.346026    6.259173    3.353161
H       2.250548    7.204015    3.493504
H       2.059797    5.788375    4.139647
H       1.806103    5.991305    2.605293
H       5.859801    4.383288    3.098848
