17
4101273
Mn      1.493727    6.952000    7.433506
C      -0.348779    6.087368    8.113534
H      -0.929750    6.510628    8.705062
C      -0.398487    6.245909    6.712456
H      -0.965362    6.780750    6.203813
C       0.650760    5.458192    6.141596
H       0.849133    5.395510    5.255352
C       1.336874    4.824791    7.199801
H       2.075598    4.266539    7.100863
C       0.729482    5.213559    8.423252
H       1.011612    4.945307    9.269522
O       1.399625    8.927803    9.614808
C       1.448585    8.161072    8.758466
O       1.670674    9.069305    5.381254
C       1.612020    8.244810    6.178947
O       4.420713    6.668892    7.667526
C       3.282287    6.794187    7.571526
