21
4101699
Re      6.256357    1.731513    1.733188
Cl      6.737934    2.628412    4.011957
O       3.209716    1.996588    2.398754
N       6.720337    4.318562    0.003538
H       7.079321    3.818128   -0.625044
C       6.261503    3.824306    1.140411
O       6.139727   -1.169739    2.869306
N       5.724582    4.807669    1.826780
H       5.329788    4.692343    2.605136
C       6.579225    5.770439   -0.119112
H       6.046184    6.016537   -0.916338
H       7.461164    6.217329   -0.163927
O       9.328785    1.360234    1.181687
C       5.843675    6.117448    1.173432
H       6.367645    6.749683    1.726537
H       4.953297    6.508734    0.985919
O       5.635219    0.824790   -1.127438
C       4.312610    1.901856    2.148736
C       6.203020   -0.118415    2.430596
C       8.227037    1.546609    1.378635
C       5.876351    1.153264   -0.053070
