19
4103814
Cr      1.987855    2.734925    0.136000
O       3.739713    2.734925    2.572330
O       0.207858    4.767740    1.448040
C       1.482071    3.436871   -1.932193
C       2.619623    4.149395   -1.471797
C       3.747943    3.446268   -1.017995
C       3.044966    2.734925    1.647823
C       0.903751    3.997706    0.928605
H       0.608877    3.979261   -2.285591
H       2.618763    5.236397   -1.469197
H       4.621671    3.988943   -0.666365
C       1.482071    2.032979   -1.932193
C       2.619623    1.320455   -1.471797
C       3.747943    2.023582   -1.017995
H       0.608877    1.490589   -2.285591
H       2.618763    0.233453   -1.469197
H       4.621671    1.480907   -0.666365
O       0.207858    0.702110    1.448040
C       0.903751    1.472144    0.928605
