23
4103487
Ir      8.686555    6.546832    5.027834
I       9.356336    6.174583    7.558358
I       7.971941    4.018244    4.720881
S      10.751369    6.024066    4.353476
O      10.920210    5.870667    2.939391
C       6.753634    7.279820    4.478315
C       7.608476    7.447862    3.410753
C       8.595989    8.307276    3.857147
C       8.354430    8.631357    5.156986
C       7.210468    8.010802    5.546635
C      11.825117    7.302625    4.877800
C      11.505959    4.649962    5.156229
H       5.980145    6.746886    4.475289
H       7.534632    7.061365    2.557308
H       9.319414    8.618154    3.344172
H       8.887612    9.189497    5.693415
H       6.804949    8.070817    6.392513
H      11.888948    7.975993    4.182485
H      12.704992    6.934133    5.053331
H      11.475920    7.707126    5.687362
H      11.994083    4.959640    5.935527
H      12.119243    4.214253    4.543383
H      10.821334    4.021005    5.431631
