17
4103816
Mn     -1.178023   -0.026172    3.059270
O      -1.352719   -2.144864    5.117810
O      -1.077620   -2.011785    0.880291
O      -4.106565    0.262135    2.826973
C      -1.297444   -1.319138    4.313239
C      -1.131826   -1.236960    1.735693
C      -2.965128    0.132385    2.921072
C      -0.335085    1.467612    4.357348
C       0.715569    0.677807    3.786345
C       0.669652    0.836337    2.379475
C      -0.411336    1.714075    2.064515
C      -1.023666    2.104088    3.290643
H      -0.563539    1.560850    5.407774
H       1.418221    0.068287    4.333130
H       1.336489    0.373890    1.668384
H      -0.713104    2.026640    1.076818
H      -1.866784    2.769600    3.392798
