27
4104512
W      -2.706250    6.027990    7.514893
C      -3.976692    2.584410    8.173664
H      -4.761955    2.539189    7.676977
C      -3.203130    1.540393    8.462564
C      -2.039834    1.873533    9.308154
C      -2.006043    3.153359    9.671502
H      -1.390461    3.519061   10.265970
C      -3.455621    0.142249    7.986989
H      -3.777038   -0.391646    8.718130
H      -2.639173   -0.233942    7.651420
H      -4.113022    0.155432    7.286961
C      -1.022143    0.832895    9.693725
H      -0.370129    1.224827   10.279304
H      -0.585484    0.503948    8.903693
H      -1.460819    0.106892   10.142632
C      -1.835995    6.876268    9.148147
C      -4.486710    6.899856    8.022546
C      -2.226931    7.664444    6.458039
C      -3.565444    5.214575    5.846903
C      -0.943560    5.130011    7.032506
Cl     -4.638995    4.467439   10.374753
O      -1.359049    7.375579   10.039295
O      -5.449695    7.403238    8.310336
O      -1.983539    8.615039    5.879126
O      -4.018950    4.777284    4.906865
O       0.045313    4.637670    6.756940
P      -3.304112    4.070422    8.864247
