14
4104265
Ti      1.564446    2.598750    4.023858
Cl      2.927154    2.598750    2.265890
Cl      2.284320    0.872972    5.227172
C      -0.603995    1.941786    4.498820
H      -0.877097    1.370061    5.246418
C      -0.146066    2.598750    2.489387
H      -0.037974    2.598750    1.515044
C      -0.308620    1.518710    3.250818
H      -0.347704    0.592515    2.933255
C      -0.603995    3.255714    4.498820
H      -0.877097    3.827439    5.246418
C      -0.308620    3.678791    3.250818
H      -0.347704    4.604985    2.933255
Cl      2.284320    4.324528    5.227172
