29
4104383
C       1.253965    3.278977    2.415880
C       1.190267    1.931777    2.693829
C       1.368936    1.240373    1.491813
C       1.542999    2.173620    0.492107
C       1.476874    3.440700    1.068054
C       3.945728    0.353121    3.464797
C       4.799299    1.347200    3.925919
C       5.732947    1.600912    2.931681
C       5.480532    0.761138    1.849046
C       4.366651    0.010386    2.183496
B       4.602885    4.784933    2.011259
N       3.982056    4.187001    3.287091
Zr      3.536010    2.342614    2.013628
H       4.470015    3.916968    1.166475
H       5.668637    5.000069    2.132463
H       4.076239    5.652897    1.594791
H       3.338842    4.584633    3.581444
H       4.559779    4.139523    3.854837
H       4.048604    2.121691    0.391863
H       1.128708    3.857620    2.943528
H       1.071590    1.498537    3.490313
H       1.299957    0.356088    1.348737
H       1.621571    1.988158   -0.364524
H       1.577760    4.198871    0.656142
H       3.280599    0.074185    3.918628
H       4.768692    1.721092    4.684128
H       6.386888    2.195876    2.979980
H       5.959952    0.756687    1.111797
H       4.053617   -0.519295    1.713261
