29
4104384
C       4.514139    8.344374    3.450534
C       4.061500    7.113007    2.960237
C       3.104963    7.363382    1.975688
C       2.980363    8.762025    1.837298
C       3.823580    9.354506    2.780988
C       7.753581    8.010902    0.427033
C       7.135717    6.833494    0.035586
C       6.705010    6.157915    1.194112
C       7.098508    6.912276    2.303871
C       7.715623    8.060545    1.837298
B       4.157190    7.429213   -1.178296
N       4.737967    8.824618   -0.995093
Zr      5.332408    8.210877    1.105805
Cl      6.083413   10.672856    1.067320
H       5.117782    8.439344    4.059452
H       4.332924    6.291736    3.229110
H       2.629818    6.777376    1.502525
H       2.447590    9.173200    1.291644
H       3.942889   10.263192    2.925969
H       8.073187    8.676768   -0.184521
H       6.997726    6.572328   -0.856703
H       6.230809    5.417584    1.159843
H       6.882150    6.669456    3.189570
H       8.007376    8.687560    2.332867
H       4.487919    6.852920   -0.131800
H       3.025217    7.424896   -1.199384
H       4.668324    6.809752   -1.924286
H       5.516507    9.076072   -1.542065
H       4.099962    9.507752   -0.962143
