20
4107378
Re      4.051278    5.288892    6.925088
O       5.117302    8.219239    9.364120
O       6.579375    8.383365    7.655718
H       7.085831    8.680267    8.256018
C       3.076777    7.285456    7.509418
H       2.662811    7.407007    8.355125
C       5.421191    8.073169    8.174846
O       2.810595    2.880743    5.504641
O       6.828124    3.996080    6.861924
C       5.777407    4.463296    6.895904
C       4.644945    7.221156    5.818006
H       5.461699    7.296864    5.338521
C       3.410413    6.786973    5.294159
H       3.256387    6.512277    4.397484
C       2.435335    6.827471    6.324863
H       1.519469    6.591639    6.238971
C       4.444703    7.529177    7.206436
C       3.718269    4.470902    8.630734
O       3.479846    4.013576    9.652000
C       3.299683    3.755096    6.062468
