19
4108103
Mn      0.458781   11.400460    6.723474
O       2.195050    9.422472    5.402043
O       2.746891   12.985112    7.675471
O       0.110803   13.143862    4.379741
N      -1.163065    8.515421    6.643359
H      -1.714181    8.394749    5.980075
H      -0.715510    7.842339    6.964568
C      -0.998672    9.774432    7.184295
C      -0.186119   10.096358    8.307543
H       0.388171    9.464707    8.808707
C      -0.422933   11.454454    8.648192
H      -0.061557   11.926416    9.440066
C      -1.320217   11.993456    7.701866
H      -1.701146   12.906541    7.715421
C      -1.649728   10.959029    6.773911
H      -2.277609   11.041488    6.012179
C       1.520096   10.217164    5.892506
C       1.858297   12.356276    7.299509
C       0.263609   12.468501    5.294676
