28
4108353
Cu      4.362078    6.489950    4.902150
I       6.768099    6.489950    4.902150
N       2.808120    5.912344    6.186513
H       2.971874    6.153771    7.049292
C       2.663260    4.449510    6.038468
H       1.829192    4.156164    6.438484
H       3.393857    3.996511    6.488486
C       2.677656    4.108138    4.543313
H       3.546815    4.321009    4.168788
H       2.521999    3.158010    4.424681
C       1.606054    4.892124    3.816814
H       0.737795    4.523495    4.042313
H       1.732919    4.786987    2.860895
C       1.612352    6.397793    4.158004
H       0.810675    6.817043    3.782499
N       2.808120    7.067556    3.617787
H       2.971874    6.826129    2.755008
C       2.663260    8.530390    3.765832
H       1.829192    8.823736    3.365816
H       3.393857    8.983389    3.315814
C       2.677656    8.871762    5.260987
H       3.546815    8.658891    5.635512
H       2.521999    9.821890    5.379619
C       1.606054    8.087776    5.987486
H       0.737795    8.456405    5.761987
H       1.732919    8.192913    6.943405
C       1.612352    6.582107    5.646296
H       0.810675    6.162857    6.021801
