27
4109162
C       5.559239    2.392000    8.068116
C       6.297300    1.153901    8.558508
H       6.319008    1.163469    9.517886
H       7.194552    1.146246    8.217958
H       5.834203    0.368368    8.257851
C       4.145137    2.392000    8.673322
H       4.217496    2.392000    9.630754
H       3.669635    1.608381    8.388233
C       5.534430    2.392000    4.110925
C       6.285930    1.155814    3.617614
H       6.305570    1.151987    2.657263
H       5.837304    0.368368    3.931893
H       7.185249    1.169210    3.955245
C       4.120328    2.392000    3.552423
H       4.158575    2.392000    2.593045
H       3.655163    3.175619    3.853080
Zn      5.502282    2.392000    6.091077
C       6.297300    3.630099    8.558508
H       6.319008    3.620531    9.517886
H       7.194552    3.637754    8.217958
H       5.834203    4.415632    8.257851
H       3.669635    3.175619    8.388233
C       6.285930    3.628186    3.617614
H       6.305570    3.632013    2.657263
H       5.837304    4.415632    3.931893
H       7.185249    3.614790    3.955245
H       3.655163    1.608381    3.853080
