23
4111057
Re      7.290132    1.530307    5.500428
C       8.393892    1.680117    3.892224
C       8.204851   -0.115895    5.968715
C       8.614422    2.504888    6.572763
C       4.270767    1.626080    6.747399
C       2.717821    1.993672    5.196011
H       2.311184    2.159337    4.376659
C       2.090562    1.833695    6.381381
H       1.170993    1.857158    6.523721
C       2.852872    1.430552    8.786809
H       3.278288    2.138718    9.274832
H       3.227662    0.588005    9.053547
H       1.910957    1.434818    8.973406
B       5.274042    1.949589    4.466369
H       6.001273    2.851150    4.772579
H       5.862760    0.853212    4.389816
H       4.937733    2.204131    3.552522
N       4.091850    1.863557    5.425669
N       3.068627    1.628924    7.349055
O       9.034069    1.747663    2.961631
O       8.669479   -1.102065    6.240237
O       9.346716    3.068008    7.215088
S       5.808678    1.412777    7.473812
