27
4111075
Re      2.383988   -0.044225    2.095937
Br      6.705553    2.143065    5.567098
O       1.875022    2.002248    1.763892
O       0.401882    3.621839    2.039963
O       5.008504    0.056442    0.503969
O       2.784970   -2.957931    2.895043
O       0.973968   -1.238849   -0.339067
N       3.231594    0.660082    3.964124
N       1.151314    0.082271    4.807161
H       0.511164    0.277426    5.345407
N       0.677404    0.262119    3.454597
H       0.092638   -0.516586    3.288769
C       4.481493    1.114486    4.156818
H       5.033135    1.246502    3.407350
C       4.983580    1.393824    5.402845
C       4.190288    1.141272    6.520100
H       4.538926    1.257025    7.385370
C       2.898137    0.724176    6.345008
H       2.335900    0.580680    7.083359
C       2.431248    0.512759    5.034132
C       0.041448    1.606199    3.237816
H      -0.115636    2.114174    4.076220
H      -0.769052    1.492358    2.964524
C       0.818406    2.481524    2.278978
C       4.008215   -0.022959    1.090389
C       2.667527   -1.861621    2.582841
C       1.489215   -0.731830    0.555848
