22
4115667
Pd      1.082285    6.459155    6.199390
Cl      0.427378    7.432337    8.242616
Cl      3.025091    5.721441    7.180839
N      -0.666083    7.070919    5.273377
O      -0.019235    4.278883    4.579729
C       1.824665    5.837703    4.305304
C       1.215983    4.728017    4.824506
C      -0.848242    5.088916    3.744732
C      -1.382109    6.344969    4.374255
C      -2.593430    6.804829    3.904698
C      -3.100217    8.013131    4.330126
C      -2.362952    8.767109    5.203047
C      -1.159225    8.264169    5.656745
H       1.411927    6.351197    3.702672
H       2.641897    5.871959    4.385287
H       1.702717    4.100337    5.267861
H      -0.382443    5.292376    2.971791
H      -1.528182    4.539782    3.509609
H      -3.035240    6.245661    3.413077
H      -3.912607    8.287179    3.999161
H      -2.673184    9.583024    5.516085
H      -0.568273    8.820050    6.088378
