25
4115665
Pd      1.398462    5.131277    4.442762
Cl      1.095260    4.514975    2.263167
Cl      0.434835    7.207393    4.049828
N       1.637326    5.667304    6.393160
O       1.336211    2.799397    6.415081
C       2.718701    3.424417    4.646021
C       1.527239    2.959161    5.096287
C      -0.018709    2.960846    6.877347
C      -0.404703    4.432565    6.904548
C       0.744418    5.300603    7.338173
C       0.920676    5.690188    8.653127
C       1.999885    6.467533    9.005147
C       2.892990    6.835076    8.028132
C       2.689161    6.425696    6.739099
H       2.944193    3.264091    3.769812
H       3.397146    3.696495    5.213093
H       0.758204    2.556520    4.456251
H      -0.600655    2.423149    6.349157
H      -0.039387    2.607061    7.755636
H      -0.680414    4.738196    6.072342
H      -1.132382    4.488300    7.490021
H       0.285557    5.507539    9.221319
H       2.077675    6.771058    9.912558
H       3.584235    7.300332    8.230863
H       3.224827    6.632071    6.102743
