23
4116696
W       2.712769    1.259292    5.520284
S       0.870527    3.016549    5.404344
S       0.036082    2.807193    3.530317
O       4.295374    2.910644    7.723150
O       4.378521    2.707250    3.228835
O       1.143655   -0.203394    7.878544
O       1.333480   -0.608430    3.332120
O       4.905638   -0.964370    5.676980
C       1.603314    4.664044    5.162414
C       0.586731    5.656468    4.726009
C      -0.561630    5.460088    4.097922
C      -1.145224    4.178352    3.614062
C       3.697662    2.353063    6.926642
C       3.758845    2.205777    4.048605
C       1.681754    0.320872    7.022483
C       1.790001    0.075396    4.119324
C       4.100843   -0.126245    5.633247
H       1.961000    4.856918    6.001725
H       2.274760    4.523772    4.438485
H       0.909904    6.592784    4.922345
H      -1.239352    6.207036    3.973235
H      -1.506048    4.330898    2.493740
H      -1.772744    3.927616    4.252385
