28
4117881
W       7.711783    4.764748   -0.229146
Cl      9.180859    6.145732   -1.461017
Cl      9.479720    3.380218    0.373753
Cl      6.173029    3.257591    0.744087
Cl      5.907130    5.788946   -1.324840
N       7.728754    5.760797    1.213574
N       7.716096    6.409916    2.301522
N       7.685438    3.439604   -2.024675
C       8.580271    6.005491    3.421901
H       9.239685    6.718738    3.613467
H       9.074426    5.180536    3.185595
C       7.716674    5.756512    4.649152
H       7.165428    4.947072    4.504378
H       8.299637    5.592792    5.432411
C       6.807138    6.940086    4.935572
H       7.357761    7.733863    5.155955
H       6.236343    6.736470    5.718636
C       5.922293    7.253193    3.727371
H       5.315639    6.489707    3.555831
H       5.367215    8.048596    3.922160
C       6.769336    7.515323    2.493380
H       6.185270    7.597922    1.697812
H       7.265640    8.364807    2.602400
C       7.733064    2.773788   -2.948214
C       7.805521    1.925191   -4.122420
H       8.656861    2.077534   -4.583505
H       7.063867    2.138116   -4.726129
H       7.745901    0.985573   -3.850848
