24
4118103
I       7.663747    5.930550    4.787672
Ni      9.857528    5.930550    3.389771
N      10.940562    7.225426    4.460826
N       9.364103    5.930550    1.811698
O       8.780064    5.930550    0.817474
C      12.543117    7.442010    6.236888
H      13.108369    7.031260    6.881174
C      11.768361    6.670090    5.378791
C      10.891568    8.564426    4.375301
H      10.317726    8.957503    3.728164
C      12.475714    8.827505    6.134259
H      12.998157    9.377386    6.707274
C      11.639579    9.398617    5.188498
H      11.580737   10.342879    5.100123
N      10.940562    4.635674    4.460826
C      12.543117    4.419090    6.236888
H      13.108369    4.829840    6.881174
C      11.768361    5.191010    5.378791
C      10.891568    3.296674    4.375301
H      10.317726    2.903597    3.728164
C      12.475714    3.033595    6.134259
H      12.998157    2.483714    6.707274
C      11.639579    2.462483    5.188498
H      11.580737    1.518221    5.100123
