27
4119296
C       8.827513    0.886483    4.728251
C       8.090242    1.988918    4.322241
H       8.110841    2.279373    3.417558
C       7.297182    2.679964    5.295203
H       6.803665    3.450913    5.040380
C       7.246542    2.229704    6.609554
H       6.714403    2.694001    7.244783
C       7.975231    1.092717    7.008249
H       7.919442    0.777427    7.903179
C       8.777732    0.437303    6.082838
C       9.704685   -0.728838    6.223052
H      10.402475   -0.539880    6.898517
H       9.206019   -1.538658    6.498603
C      10.288322   -0.916716    4.945278
C       9.776781    0.019436    3.996701
H      10.002512    0.075583    3.076168
C      11.304538   -1.959764    4.633150
H      10.853935   -2.810615    4.449043
H      11.907057   -2.067740    5.398839
H      11.822086   -1.686585    3.846734
C       5.262176    0.957747    4.167397
C       5.436409   -0.111215    6.477875
C       6.765042   -1.090558    4.469771
O       4.375562    1.196374    3.466328
O       4.656223   -0.528003    7.220398
O       6.833705   -2.115250    3.944274
Cr      6.666596    0.555429    5.285083
