25
4120574
Pt      2.786024    3.480192    0.000000
Cl      2.629338    1.814766    1.585779
N       1.574271    4.652277    1.114966
C       0.442805    5.164898    0.598238
H       0.226059    4.982102   -0.308840
C       1.882453    4.918061    2.401177
H       2.683428    4.560009    2.766102
C      -0.413502    5.949310    1.346783
H      -1.205884    6.301002    0.957928
C      -0.103759    6.221015    2.677862
H      -0.681854    6.753300    3.211042
C       1.064875    5.697572    3.208050
H       1.302984    5.870652    4.111389
Cl      2.942710    5.145619   -1.585779
N       3.997777    2.308108   -1.114966
C       5.129243    1.795487   -0.598238
H       5.345989    1.978283    0.308840
C       3.689594    2.042323   -2.401177
H       2.888619    2.400375   -2.766102
C       5.985549    1.011075   -1.346783
H       6.777932    0.659382   -0.957928
C       5.675806    0.739370   -2.677862
H       6.253902    0.207084   -3.211042
C       4.507173    1.262812   -3.208050
H       4.269064    1.089733   -4.111389
