27
4121198
C      -0.235684    0.878505    1.376795
C       0.501483    1.991607    1.797468
H       0.471026    2.284800    2.700336
C       1.296478    2.670394    0.835268
H       1.800021    3.430956    1.100317
C       1.353276    2.240371   -0.496298
H       1.886676    2.712999   -1.124634
C       0.615250    1.098078   -0.911987
H       0.672648    0.788787   -1.807924
C      -0.195960    0.435818    0.016049
C      -1.115189   -0.711518   -0.129120
H      -1.274085   -1.214840   -0.919160
C      -1.710706   -0.915423    1.130591
C      -1.201930    0.013093    2.113095
H      -0.748150   -0.470053    2.848666
H      -1.937296    0.555907    2.493647
C      -2.740356   -1.953939    1.423604
H      -3.153898   -2.249385    0.586025
H      -3.427590   -1.576501    2.012182
H      -2.316519   -2.718365    1.866284
C       3.325749    0.955881    1.929750
C       3.146691   -0.114938   -0.381889
C       1.829278   -1.091102    1.637102
O       4.219925    1.181357    2.630548
O       3.919207   -0.533156   -1.129010
O       1.761155   -2.112984    2.170968
Cr      1.921681    0.552151    0.819669
