26
4130880
Au      5.153437    6.939839    3.547509
F       6.109380    8.627218    3.001544
F       4.914358    6.493641    1.663973
F       3.741715    3.629633    7.364215
N       5.326126    7.270943    5.486567
C       5.939302    8.378515    5.917282
H       6.328691    8.974001    5.288035
C       6.013151    8.667084    7.256536
H       6.465947    9.444386    7.562748
C       5.420862    7.809716    8.143203
H       5.448463    8.009880    9.070250
C       4.773372    6.643763    7.715853
C       4.774864    6.336846    6.358092
C       4.096044    5.846445    8.745531
H       3.180756    5.647950    8.454462
H       4.069936    6.351858    9.585089
H       4.583900    5.009094    8.883494
C       4.214651    5.177565    5.587516
C       3.709639    3.958235    6.053563
C       3.202389    2.995782    5.207276
H       2.824189    2.201800    5.565644
C       3.241179    3.185937    3.852879
H       2.901769    2.517057    3.269059
C       3.780505    4.360230    3.329628
H       3.816311    4.498677    2.390804
C       4.259409    5.312676    4.197788
