21
4133980
Ru      1.664778    2.212575    6.434681
C       3.615389    2.212575    7.402378
H       4.508702    2.212575    6.916679
C       2.891328    3.366389    7.822866
H       3.167328    4.265845    7.667049
C       1.719908    2.929449    8.495136
H       1.060458    3.466663    8.874278
C      -0.101832    1.499949    5.370763
H      -0.744427    0.961143    5.750287
C       1.065374    1.060089    4.680499
H       1.327328    0.141605    4.531573
C       1.789435    2.212575    4.254651
H       2.626565    2.212575    3.739090
C       2.891328    1.058761    7.822866
H       3.167328    0.159305    7.667049
C       1.719908    1.495701    8.495136
H       1.060458    0.958487    8.874278
C      -0.101832    2.925201    5.370763
H      -0.744427    3.464007    5.750287
C       1.065374    3.365061    4.680499
H       1.327328    4.283545    4.531573
