22
4300483
Au      2.849879    2.592077    5.573415
Cl      4.764404    1.777928    4.637751
Cl      3.059272    1.365488    7.488091
N       2.557293    3.766690    3.944857
H       2.635908    3.197895    3.211391
H       3.109909    4.348126    3.991111
C       1.185003    4.368349    4.022829
H       0.507528    3.721187    3.704333
H       1.134134    5.179831    3.457201
C       0.929504    4.723531    5.463329
H       1.538769    5.447797    5.751429
H      -0.003468    5.033208    5.579626
N       1.171129    3.489876    6.278732
H       1.317954    3.716131    7.043915
H       0.543367    2.983016    6.198116
Cl      1.294601   -0.060798    4.367095
O      -0.927192    1.477604    5.954949
H      -0.485562    0.998552    5.484474
H      -1.098295    1.023832    6.607800
O       2.390815    1.793602    1.977054
H       2.150346    1.276630    2.312730
H       3.133031    1.719026    1.718028
