28
4300029
Re      4.399188    1.072309    3.160798
Cl      4.110089   -1.020012    2.212430
Cl      2.538984    1.756378    1.864652
Cl      6.518249    0.339042    3.822987
Cl      4.238612    6.276449    8.299179
O       3.623682    1.038358    4.631473
N       5.483227    1.734076    1.307695
N       5.670183    3.700848    2.549941
N       5.046048    3.022643    3.420027
C       5.950090    2.993850    1.375711
C       6.637135    3.590030    0.354194
C       6.896214    2.871034   -0.800787
C       6.397661    1.575379   -0.877785
C       5.683786    1.046226    0.180947
C       4.816974    3.800569    4.636606
C       4.473319    5.144743    4.499292
C       4.288799    5.906873    5.632457
C       4.466743    5.318494    6.867003
C       4.820413    4.001456    7.008167
C       4.986280    3.223657    5.872436
H       6.986240    4.446709    0.523591
H       7.417535    3.276984   -1.550241
H       6.676588    1.021351   -1.593874
H       5.393338   -0.015922    0.155281
H       4.296867    5.631052    3.630490
H       3.911595    6.816051    5.519525
H       4.931886    3.686843    7.900069
H       5.251029    2.282292    5.857036
