29
4300131
Mo      0.806952    5.781625    3.185682
S       2.691031    6.942425    4.062359
S      -0.320069    7.240339    4.692262
S       1.891215    5.758052    1.069947
S      -1.110929    5.813020    1.774783
O       2.914451    3.452381    3.607437
O      -1.140671    3.746232    4.632479
C       2.164407    8.123929    5.205738
C       0.830920    8.266052    5.469164
C       0.713179    5.864249   -0.186992
C      -0.620392    5.861043    0.121476
C       3.247221    8.944112    5.870445
H       4.104894    8.674986    5.533314
H       3.217781    8.803764    6.819053
H       3.106459    9.874979    5.680724
C       0.295445    9.276398    6.457353
H      -0.662072    9.211661    6.492841
H       0.546673   10.160467    6.178913
H       0.660667    9.097802    7.326796
C       1.245967    5.942645   -1.599666
H       2.206022    5.930641   -1.581922
H       0.944699    6.756181   -2.011866
H       0.926701    5.191175   -2.104680
C      -1.715174    5.902050   -0.911755
H      -2.569322    5.892050   -0.473621
H      -1.641439    5.136254   -1.486379
H      -1.633183    6.703365   -1.434512
C       2.164470    4.301892    3.449108
C      -0.444085    4.487415    4.112451
