21
4302249
Ti      1.087665    5.125808    2.661698
Cl     -0.280685    6.964657    2.872985
Cl     -0.500365    3.780016    1.706133
N       1.446282    5.064658    4.651799
N       1.401626    3.799637    4.147227
C       3.393145    5.100289    2.326715
C       2.984037    6.360615    2.143149
C       2.191751    6.369041    1.024984
C       2.098117    5.108715    0.558849
C       2.839985    4.314240    1.372547
C       1.729344    4.981117    5.959585
C       1.853949    3.646159    6.307381
C       1.658759    2.939558    5.136337
H       4.054344    4.766850    3.126202
H       3.235408    7.228519    2.753481
H       1.778322    7.112959    0.652263
H       1.591775    4.811389   -0.225962
H       2.956667    3.394575    1.288219
H       1.838104    5.769574    6.597172
H       2.036895    3.288645    7.167902
H       1.695492    1.974150    5.045719
