27
4303758
I       1.115152    3.487306    4.781144
I       3.571887    2.132507    0.342738
Fe      2.365530    2.704352    2.602913
O       4.257954    4.908912    2.923557
O       0.511827    4.464825    1.194672
N       1.220848    1.077406    2.404541
N       3.488225    1.388686    3.606227
C       3.516914    4.050378    2.794972
C       1.250630    3.782020    1.706675
C       0.030043    1.006379    1.786164
H      -0.359747    1.806472    1.453011
C      -0.650005   -0.187684    1.614327
H      -1.488386   -0.203672    1.167786
C      -0.098357   -1.346937    2.098275
H      -0.545877   -2.176837    1.979041
C       1.104591   -1.299019    2.756397
H       1.488682   -2.090620    3.114097
C       1.755518   -0.074967    2.891995
C       3.039868    0.109390    3.572327
C       3.752577   -0.926716    4.169664
H       3.433616   -1.819950    4.119399
C       4.917972   -0.644465    4.831292
H       5.413113   -1.339430    5.249778
C       5.366977    0.659478    4.883895
H       6.171822    0.876950    5.338619
C       4.621307    1.642073    4.263180
H       4.929514    2.540060    4.306431
