28
4303549
Au      6.027813    4.416598    9.303267
Cl      7.887172    4.444790   10.590481
N       3.383100    4.443313    7.713810
O      -3.996493    4.908258    5.212069
O      -4.329353    4.855599    7.646481
H      -4.759413    4.951285    6.455679
C      -1.877083    4.860736    4.161206
H      -2.416003    4.653951    3.369099
H      -1.170258    4.189648    4.258900
H      -1.474423    5.748243    4.060873
C      -2.757005    4.844039    5.382373
C      -2.169073    4.770187    6.695951
C      -3.020964    4.785600    7.794341
C      -2.572460    4.753490    9.225416
H      -3.079839    5.414304    9.741606
H      -1.616035    4.966697    9.271622
H      -2.725277    3.860204    9.596386
C      -0.698157    4.665510    6.871535
C      -0.126436    3.476174    7.345480
H      -0.682261    2.725454    7.517103
C       1.246274    3.381130    7.568590
H       1.629960    2.573255    7.888074
C       2.040638    4.494046    7.316436
C       1.523283    5.660263    6.797605
H       2.092165    6.393644    6.595618
C       0.149110    5.746958    6.574495
H      -0.220205    6.547127    6.219366
C       4.398739    4.410561    8.253763
