27
4303182
Re      0.425188   11.617189    3.941487
Br     -1.288691   11.805464    1.975744
C      -0.542878   10.245509    4.869607
C      -0.435345   12.904353    5.028668
C       3.079363    9.840603    4.799203
H       3.984030    9.779178    5.198159
H       2.542069    9.089709    5.156438
C       3.197742    9.683905    3.293341
H       3.466573    8.755003    3.082129
H       3.904789   10.290638    2.956966
C       2.139477   11.151848    1.078224
H       2.823934   10.676741    0.543675
H       1.359495   11.309799    0.488916
C       2.707317   12.500700    1.500647
H       2.783241   13.081107    0.701432
H       3.618530   12.366567    1.863097
C       2.959250   13.786873    3.992165
H       3.679265   14.293319    3.539755
H       2.551691   14.386084    4.667522
C       3.572097   12.608508    4.701420
H       4.111469   12.936946    5.464129
H       4.182748   12.139669    4.079518
O      -1.128703    9.439457    5.428927
O      -0.968161   13.699122    5.693594
S       1.619451   10.065746    2.441062
S       2.313988   11.409834    5.327102
S       1.688466   13.353009    2.758010
