25
4303406
Fe      4.572139    6.740926    6.065496
O       6.702207    8.261047    7.121825
O       2.273775    7.840657    7.265328
N       5.901119    7.553107    6.614842
N       3.143953    7.270176    6.692179
N       4.923467    4.723447    5.970372
N       4.558859    6.417591    4.049851
C       5.066394    3.899465    7.028162
H       4.898071    4.231661    7.880582
C       5.451772    2.591654    6.894972
H       5.547760    2.051829    7.645995
C       5.692222    2.084686    5.643840
H       5.970186    1.204056    5.535569
C       5.516173    2.902094    4.552538
H       5.645295    2.569742    3.693244
C       5.143582    4.220581    4.741582
C       4.952941    5.195454    3.645983
C       5.143349    4.900685    2.302048
H       5.439601    4.058383    2.039104
C       4.884304    5.878185    1.363699
H       5.002080    5.702234    0.458003
C       4.451398    7.111500    1.780456
H       4.259814    7.777601    1.159187
C       4.303464    7.349846    3.120095
H       4.014872    8.189799    3.395928
