27
4304508
Pt      4.186059    8.964411    5.801933
Cl      4.186059   11.380529    5.801933
N       2.324436    8.594274    6.495844
N       2.028090    7.251856    6.589449
C       1.247738    9.249734    6.897338
H       1.167206   10.196198    6.935244
C       0.243653    8.340069    7.258605
H      -0.626284    8.549086    7.578872
C       0.770374    7.085967    7.055924
H       0.332554    6.258731    7.214510
C       4.186059    7.040337    5.801933
C       3.058144    6.361768    6.216578
C       3.039913    4.975191    6.237465
H       2.276527    4.496807    6.537618
C       4.186059    4.311342    5.801933
H       4.186059    3.360462    5.801933
N       6.047682    8.594274    5.108022
N       6.344027    7.251856    5.014417
C       7.124380    9.249734    4.706528
H       7.204912   10.196198    4.668622
C       8.128464    8.340069    4.345261
H       8.998402    8.549086    4.024994
C       7.601744    7.085967    4.547942
H       8.039563    6.258731    4.389356
C       5.313973    6.361768    5.387288
C       5.332204    4.975191    5.366401
H       6.095591    4.496807    5.066248
