23
4305489
Pt     -1.745080    6.993677    7.084168
Cl      0.446524    6.698272    7.769658
Cl     -2.142326    4.807595    7.755410
S      -3.819012    7.218100    6.236467
S      -1.215950    9.072189    6.467952
O      -3.815862    7.503355    4.791109
O      -2.307757    9.950720    6.043668
C      -4.849751    5.809442    6.518902
H      -5.708050    5.936825    6.062606
H      -5.004289    5.705097    7.481091
H      -4.409596    5.007205    6.169916
C      -4.752749    8.462787    7.082508
H      -4.329966    9.336846    6.947243
H      -4.778533    8.256807    8.040189
H      -5.666162    8.483114    6.728112
C      -0.037377    8.973671    5.149112
H      -0.472894    8.614561    4.347437
H       0.699846    8.382834    5.412429
H       0.314237    9.868057    4.957034
C      -0.312424    9.907355    7.736292
H       0.017930   10.763798    7.391816
H       0.446118    9.353107    8.015841
H      -0.900244   10.067261    8.503699
