17
4305556
Hg     13.450920   13.340246   -0.429805
C      13.472993   11.275469   -0.319482
H      13.406177   11.000218    0.609035
H      14.301036   10.939269   -0.696736
H      12.721312   10.916659   -0.817847
S      13.425983   15.707996   -0.699938
C      14.938175   16.343040   -0.009745
C      15.875987   15.563489    0.666110
H      15.759059   14.632550    0.725970
C      16.973681   16.165110    1.247304
H      17.591730   15.637217    1.716435
C      17.178902   17.520722    1.152642
H      17.935356   17.914921    1.545209
C      16.260180   18.296340    0.475395
H      16.384267   19.225313    0.408575
C      15.150555   17.699635   -0.106494
H      14.532506   18.231460   -0.575625
