19
4305200
Pt      1.025670    0.656562    2.112431
Cl      3.154554    0.282432    2.968955
Cl      0.032137   -0.961572    3.443645
N      -0.736318    0.967800    1.300328
H      -1.457221    0.591159    1.567117
N       1.786520    2.065102    0.973890
H       2.581370    2.432846    1.111623
N      -0.133694    2.646375   -0.193043
H      -0.393507    3.160426   -0.903397
C      -1.046946    1.812030    0.378494
C       1.206190    2.783785    0.081338
C      -2.450868    1.984040   -0.101944
H      -3.011943    1.268322    0.263536
H      -2.468036    1.944498   -1.081257
H      -2.793997    2.851996    0.196296
C       1.924044    3.806945   -0.730960
H       2.707998    4.125261   -0.236423
H       1.323675    4.560227   -0.912073
H       2.211635    3.407566   -1.577962
