25
4305201
Pt      3.112354   10.072419   11.287415
Cl      1.637843   11.851378   11.411386
Cl      3.544400   10.447610    9.036454
N       4.351903    8.544294   11.229612
H       4.575434    8.314491   10.323381
N       2.837681    9.760062   13.214877
H       2.155857   10.287514   13.667333
N       4.418334    8.077028   13.509171
H       4.870749    7.694023   14.235871
C       4.809378    7.857074   12.217628
C       3.460155    8.946997   13.983920
C       5.835051    6.766057   12.036909
H       5.885490    6.522028   11.079233
H       5.549163    5.963935   12.540810
C       7.220340    7.195023   12.519705
H       7.490940    8.013559   12.051419
H       7.867078    6.482633   12.331071
H       7.192564    7.364639   13.483976
C       3.182039    8.823341   15.461327
H       2.680218    9.617803   15.771319
H       4.037505    8.787229   15.957314
C       2.368869    7.559424   15.751532
H       1.507160    7.611951   15.288523
H       2.217720    7.483918   16.717123
H       2.861899    6.773717   15.436264
