25
4306969
Pt      5.851631    2.711752    2.712375
Cl      3.983625    2.404706    1.427056
Cl      6.132913    0.444238    2.897020
N       5.751959    4.731692    2.649258
N       7.440105    3.124218    3.865231
C       4.901906    5.491775    1.977946
H       4.260409    5.096326    1.433976
C       4.960105    6.892109    2.079681
H       4.356161    7.410815    1.597998
C       5.874540    7.498122    2.862416
H       5.887760    8.424260    2.939236
C       6.810583    6.710648    3.564871
C       7.844626    7.213947    4.416813
H       7.917600    8.133237    4.536542
C       8.721277    6.400794    5.056289
H       9.382222    6.765429    5.599567
C       8.628145    4.978205    4.895728
C       9.500261    4.074322    5.490911
H      10.189262    4.373905    6.039034
C       9.331706    2.732192    5.258375
H       9.915337    2.119332    5.645244
C       8.306477    2.287098    4.457646
H       8.209598    1.372944    4.321307
C       7.612583    4.468059    4.083926
C       6.704624    5.330857    3.421612
