24
4308926
Re     -1.560268    2.662673    8.449852
Cl     -0.498439    4.489413    9.506612
Cl     -2.339382    4.091092    6.741928
Cl     -3.560454    3.286296    9.709528
O      -0.226109    2.110500    7.632549
N      -1.127113    1.449699   10.118767
N      -1.224941    0.095226   10.058844
N      -2.801997    1.124524    7.759444
N      -2.599971   -0.155099    8.144832
C      -1.375572   -0.576275    8.799285
H      -1.397944   -1.535851    8.943805
H      -0.616566   -0.374307    8.230604
C      -0.898856    1.736807   11.410049
H      -0.818657    2.597084   11.754313
C      -0.802526    0.586923   12.151450
H      -0.634507    0.516939   13.063220
C      -1.007077   -0.443966   11.259654
H      -0.996580   -1.351355   11.459398
C      -3.953626    1.173280    7.102641
H      -4.341193    1.939699    6.746628
C      -4.487052   -0.109334    7.034493
H      -5.288518   -0.354733    6.630307
C      -3.594437   -0.972148    7.683072
H      -3.663309   -1.894490    7.779419
