30
4308343
Hg      7.295914    3.764118    8.446524
Cl      7.320930    4.506504    6.154017
Cl      7.805727    4.347205   10.723315
S       4.406718    0.500656    8.286562
N       4.853397    3.957682    8.557594
N       7.809374    1.470656    8.620994
C       4.383664    5.146013    8.129538
H       4.978534    5.732907    7.678288
C       3.066527    5.549823    8.319316
H       2.772201    6.403642    8.024106
C       2.197228    4.685738    8.944882
H       1.291999    4.937264    9.088270
C       2.654815    3.436664    9.365206
H       2.065920    2.820682    9.784123
C       4.005134    3.107285    9.157152
C       4.528056    1.769236    9.590128
H       4.018675    1.465523   10.382979
H       5.476389    1.865055    9.858629
C       8.916035    1.184909    9.330061
H       9.362993    1.889010    9.785529
C       9.428593   -0.102664    9.421436
H      10.210843   -0.284891    9.927511
C       8.752349   -1.124166    8.742452
H       9.073870   -2.017340    8.774784
C       7.616032   -0.821309    8.028323
H       7.147820   -1.505733    7.564421
C       7.152354    0.497063    7.987556
C       5.889705    0.850397    7.263587
H       5.837290    0.331090    6.422940
H       5.904407    1.812013    7.028824
