26
4309259
Re      8.256062    1.068277    7.091733
S       7.511155    3.228274    8.105494
C       7.005735    1.228423    5.624925
C       8.924122   -0.573422    6.313797
C       6.917407    0.083162    8.034412
C      10.649313    2.304778    8.538261
H      11.508078    2.099645    9.007615
C      10.078696    3.625868    9.071380
H      10.821946    4.272156    9.175913
H       9.694445    3.465088    9.969319
C      10.914500    2.462390    7.036121
C       8.990652    4.262652    8.173441
H       9.348826    4.384623    7.258776
H       8.751625    5.155258    8.529899
C       6.540276    4.159689    6.863641
H       6.367774    5.064968    7.197102
H       5.689216    3.701901    6.703706
H       7.046649    4.211170    6.025286
N       9.701708    1.185654    8.736874
H       9.252646    1.302873    9.531325
H      10.170400    0.395218    8.789141
O       6.297916    1.325841    4.730121
O       9.260434   -1.508006    5.786951
O       6.177574   -0.528277    8.643840
O      11.977242    2.933642    6.650394
O       9.957021    2.118654    6.258395
