21
4309750
Pt      9.575318    8.104805    1.372696
Cl      9.914541    6.330791    2.816523
Cl      9.159771    9.822941   -0.110045
N      11.566788    8.486707    1.370782
C      12.099567    9.568659    1.999954
C      13.494939    9.730724    2.069331
H      13.869152   10.493112    2.495956
C      14.312077    8.769749    1.511130
H      15.257124    8.856488    1.559773
C      13.746528    7.690079    0.885945
H      14.300449    7.028125    0.489622
C      12.388155    7.566819    0.832517
H      12.010770    6.806713    0.401905
C      11.204203   10.566155    2.626734
H      10.688338   11.024958    1.930578
H      11.739095   11.221262    3.121141
H      10.591085   10.114201    3.242350
N       7.573064    7.733449    1.413046
H       7.428242    6.875191    1.677793
H       7.224221    7.856709    0.581326
H       7.170309    8.301816    1.997562
