21
4309858
Hg      3.961359    1.848862    4.440566
S       1.668292    1.665748    4.957981
C       0.943456    2.616951    3.588297
H       1.050148    2.101602    2.760984
H      -0.017832    2.715635    3.752384
C       1.534143    3.980251    3.379995
H       1.074234    4.422502    2.636199
H       1.394275    4.520272    4.185691
N       2.983652    3.905325    3.085228
H       3.396315    4.675608    3.339710
H       3.116940    3.786539    2.193066
S       6.296687    2.119877    4.688760
C       6.859641    0.920136    3.450739
H       7.808709    1.079127    3.266018
H       6.775160    0.018275    3.824110
C       6.090551    0.984098    2.148851
H       6.149806    1.889614    1.780393
H       6.494470    0.367323    1.502329
N       4.692482    0.631394    2.345363
H       4.600876   -0.267726    2.449514
H       4.193759    0.895465    1.631044
