21
4309856
Zn      8.430566    3.533901    2.419704
S       6.559564    4.554540    3.252759
C       5.425306    3.482394    2.307430
H       4.574907    3.963489    2.163215
H       5.191420    2.485244    2.927842
C       5.975707    2.950088    1.033697
H       5.359629    2.296647    0.668806
H       6.055984    3.674930    0.393928
N       7.287619    2.324222    1.216627
H       7.586731    2.091308    0.437482
H       6.998446    1.449192    1.796388
S      10.301569    4.554540    1.586648
C      11.435827    3.482394    2.531978
H      12.286226    3.963489    2.676192
H      11.669712    2.485244    1.911566
C      10.885425    2.950088    3.805710
H      11.501504    2.296647    4.170602
H      10.805149    3.674930    4.445480
N       9.573514    2.324222    3.622781
H       9.274402    2.091308    4.401925
H       9.862686    1.449192    3.043020
