29
4310271
Ag     13.597482   -1.252732    1.858306
C      10.575751   -1.745552    2.464114
H      10.886347   -2.593821    2.682651
C       9.207899   -1.469766    2.591594
C       8.715871   -0.235267    2.267134
H       7.812300   -0.034637    2.349271
C       9.636174    0.716258    1.798841
H       9.351422    1.565834    1.552058
C      10.942024    0.379695    1.713359
H      11.535063    1.029294    1.411198
C       8.343320   -2.503635    3.099655
N      11.450642   -0.823435    2.033731
N       7.676786   -3.357786    3.519632
C      16.619213   -1.745552    1.252499
H      16.308617   -2.593821    1.033962
C      17.987065   -1.469766    1.125019
C      18.479093   -0.235267    1.449479
H      19.382664   -0.034637    1.367342
C      17.558790    0.716258    1.917772
H      17.843542    1.565834    2.164555
C      16.252940    0.379695    2.003254
H      15.659901    1.029294    2.305415
C      18.851644   -2.503635    0.616958
N      15.744322   -0.823435    1.682882
N      19.518178   -3.357786    0.196980
N      13.516964   -4.064894    3.716613
O      13.516964   -5.293512    3.716613
O      14.462854   -3.457774    3.226020
O      12.571074   -3.457774    4.207206
