27
4310354
Pt      3.551309    3.683950    2.373973
Cl      1.371894    3.694388    3.181161
Cl      5.692920    3.694488    1.530884
Cl      4.315130    2.883403    4.391569
Cl      3.827069    5.836160    3.126266
O       0.070120    2.194360    0.299964
C       1.243513    2.484746    0.501521
C       2.200028    1.435964    0.985258
C       1.986801    0.145692    0.588072
C       2.927899   -0.829247    0.874994
C       4.057295   -0.484975    1.554359
C       4.234596    0.827251    1.957473
N       3.314644    1.777242    1.683593
C       1.765196    3.805952   -0.001186
C       1.175102    4.370758   -1.123976
C       1.730480    5.495380   -1.687150
C       2.878425    6.017277   -1.131090
C       3.412023    5.450475    0.009485
N       2.861240    4.366767    0.579773
H       1.287509   -0.179620    0.023713
H       2.989750   -1.756286    0.640240
H       4.737870   -1.117637    1.814012
H       4.996383    1.137595    2.454252
H       0.419703    3.951644   -1.541318
H       1.204383    5.857614   -2.406827
H       3.305111    6.795631   -1.505749
H       4.198747    5.757825    0.462395
