25
4311633
Pt      4.208908    6.472582    0.266144
Cl      2.353360    5.553759   -0.707376
Cl      2.933880    7.275108    1.991589
N       5.481360    5.873112   -1.091880
N       5.967120    7.069025    1.051440
N       6.739920    5.981227   -0.883210
N       4.489600    6.102648   -3.180202
C       7.007640    6.621597    0.331608
C       8.314960    6.832836    0.711744
H       9.021520    6.495186    0.210288
C       8.541280    7.564688    1.868328
H       9.407920    7.734345    2.159496
C       7.479600    8.030412    2.565514
H       7.624040    8.529402    3.337109
C       6.190680    7.777591    2.156261
H       5.474920    8.103598    2.651246
C       5.171320    5.309254   -2.395666
C       5.593600    4.040156   -2.690069
H       6.065560    3.526196   -2.075381
C       5.278040    3.562789   -3.950179
H       5.531960    2.704526   -4.202525
C       4.599080    4.354519   -4.813978
H       4.366320    3.991920   -5.803949
C       4.219120    5.616964   -4.398254
H       3.751760    6.157537   -4.995149
