21
4312320
Au      3.116540    0.255646    5.327099
I       1.107416    1.780232    5.101886
N       5.574432   -1.568886    5.702760
C       4.674759   -0.896815    5.548001
C       6.726019   -2.448413    5.850452
H       7.457625   -1.929773    6.294943
C       6.364262   -3.621836    6.747206
H       5.598721   -4.114544    6.359249
H       6.097798   -3.289042    7.640427
C       7.566177   -4.566193    6.887125
H       8.299874   -4.097256    7.359175
H       7.306729   -5.350636    7.431255
C       8.058506   -5.032969    5.542348
H       7.356943   -5.579702    5.109871
H       8.857831   -5.603473    5.666720
C       8.417328   -3.855224    4.629341
H       8.680894   -4.198823    3.738947
H       9.186321   -3.364677    5.010232
C       7.227743   -2.895740    4.472462
H       7.506288   -2.104814    3.946706
H       6.496260   -3.349550    3.983452
