22
4312422
Ir      2.644803    7.126191    2.867090
F       1.052053    6.225226    3.434894
O       1.105650    9.598174    2.112223
O       3.100888    8.326150    5.715825
O       2.120889    5.856343    0.080980
C       1.677518    8.685196    2.386012
C       2.925997    7.858086    4.707434
C       2.339169    6.324230    1.057558
Sb      3.586001    3.483907    3.482807
F       3.734664    5.478571    3.440678
F       2.345240    3.709062    4.857825
F       4.996071    3.533709    4.681404
F       2.199843    3.722810    2.252974
F       3.356892    1.639678    3.547687
F       4.788546    3.419976    2.082338
Sb      6.205100    7.471444    1.553656
F       4.423229    7.985679    2.287680
F       5.791859    8.467346    0.021209
F       6.453568    6.513040    3.125435
F       5.303972    6.046819    0.798230
F       6.820776    9.037798    2.327206
F       7.886481    7.031193    0.884030
