29
4312342
Fe      2.981937    2.065661    6.648342
N       5.388085    2.586104    9.515826
N       3.695484    2.817726   11.712597
C       4.183422    1.989931    9.511038
C       3.352454    2.114805   10.631449
C       4.874202    3.413900   11.673334
C       5.715799    3.287011   10.600805
C       3.781773    1.236657    8.327425
C       2.483223    0.684794    8.055463
C       2.531232    0.068479    6.791410
C       3.833963    0.241692    6.259933
C       4.613375    0.956698    7.190736
C       1.568868    2.954685    5.481392
C       1.562686    3.526689    6.781834
C       2.852684    4.066468    7.007831
C       3.632575    3.834846    5.857735
C       2.834967    3.148038    4.918314
H       2.507784    1.677745   10.618042
H       5.146340    3.937566   12.415486
H       6.559246    3.720043   10.630491
H       1.727996    0.723062    8.630990
H       1.806767   -0.370594    6.359525
H       4.129903   -0.062437    5.410528
H       5.521034    1.206446    7.089228
H       0.830200    2.521653    5.065787
H       0.832410    3.546830    7.384174
H       3.138236    4.513598    7.794991
H       4.539381    4.092651    5.738033
H       3.110466    2.862036    4.055502
