27
4312771
Pt      0.160141    2.035074    0.219739
S       2.438607    1.884921    0.477352
S       0.634932   -0.067074   -4.005065
N      -1.881343    2.177605    0.242589
N      -0.070279    2.916177    2.009575
N       3.683993    0.983238   -1.857762
N       0.226202    1.192843   -1.569785
C      -2.708015    1.843000   -0.762199
C      -4.058921    1.945897   -0.605690
C      -4.587813    2.416174    0.586909
C      -3.722699    2.797274    1.610477
C      -2.365085    2.694377    1.413276
C      -1.369634    3.118922    2.369546
C      -1.672318    3.745451    3.590316
C      -0.639746    4.147892    4.391642
C       0.639631    3.938287    4.033237
C       0.901252    3.327003    2.840638
C       3.094398    1.333850   -0.951575
C       0.419864    0.663114   -2.576138
H      -2.341288    1.521351   -1.587001
H      -4.627778    1.685986   -1.322501
H      -5.530968    2.470290    0.699595
H      -4.061942    3.125782    2.424324
H      -2.576703    3.881885    3.850121
H      -0.823267    4.576249    5.211749
H       1.349375    4.215728    4.604494
H       1.807607    3.194380    2.591789
