27
4312118
Re      1.273384    2.073553    1.558662
C      -1.238090    2.264133   -0.036246
C      -0.625518    3.640558   -0.208415
H      -0.781993    3.953643   -1.135160
H      -1.071521    4.274363    0.406120
C       1.628783    3.384746   -1.168111
H       2.571893    3.642467   -1.010770
H       1.278633    3.928825   -1.916921
C       1.550431    1.910959   -1.520686
H       0.621659    1.666601   -1.762052
H       2.138229    1.712418   -2.292562
C       3.009224    2.686033    2.059434
C       1.523120    0.553625    2.720100
C       0.542194    3.010572    3.058671
N       0.821666    3.636740    0.064254
H       1.062107    4.465268    0.414358
N       1.995541    1.135885   -0.317153
H       2.914695    1.093886   -0.303149
H       1.672708    0.274903   -0.372346
O      -0.613641    1.453551    0.739749
O      -2.311336    1.971476   -0.601355
O       4.062141    3.069752    2.339517
O       1.645059   -0.328357    3.433488
O       0.112213    3.608105    3.963999
O       0.743218    6.296047    1.121156
H       0.757131    6.868762    0.543691
H       1.029702    6.853489    1.800769
