29
4312341
Fe      1.910604    3.549724   -2.924020
N       4.092501    1.006958    1.182916
N       5.728565    1.346905   -0.483920
C       5.259708    0.766120    0.601540
C       4.947803    2.289441   -1.023289
C       3.704010    2.627406   -0.527607
C       3.346919    1.926698    0.620023
C       2.868135    3.660132   -1.122426
C       1.444259    3.807806   -0.954398
C       1.035347    4.938651   -1.713884
C       2.151476    5.488712   -2.333906
C       3.286343    4.715654   -1.977687
C       0.871737    1.929672   -3.589074
C       2.257167    1.686852   -3.673088
C       2.823313    2.679934   -4.516588
C       1.777291    3.526334   -4.965222
C       0.576340    3.064481   -4.392247
H       5.815216    0.108030    1.004806
H       5.264752    2.750303   -1.786136
H       2.508988    2.128883    1.018249
H       0.882967    3.247835   -0.431831
H       0.142202    5.255803   -1.784455
H       2.151757    6.247894   -2.900160
H       4.176715    4.871256   -2.266695
H       0.245322    1.418264   -3.086671
H       2.729164    0.990109   -3.237896
H       3.740618    2.758231   -4.743425
H       1.872802    4.275605   -5.539877
H      -0.283934    3.452001   -4.514907
