21
4312319
Au      5.039126    0.325611    5.042867
Br      6.914016    1.769308    5.216490
N       2.579580   -1.498901    4.712910
C       3.463838   -0.838002    4.844758
C       1.442819   -2.375780    4.569625
H       0.680998   -1.848789    4.192916
C       1.024115   -2.924369    5.935199
H       1.781041   -3.414644    6.342853
H       0.783997   -2.174919    6.535244
C      -0.172303   -3.861722    5.781824
H      -0.399711   -4.248327    6.663729
H      -0.954659   -3.345530    5.464311
C       0.118531   -4.984818    4.800360
H      -0.699581   -5.526928    4.670530
H       0.820433   -5.574444    5.174379
C       0.580090   -4.438389    3.456986
H       0.818717   -5.194319    2.864341
H      -0.166397   -3.945955    3.033860
C       1.779435   -3.511835    3.590852
H       2.010314   -3.133870    2.705584
H       2.560652   -4.021548    3.923164
