21
4313737
W       7.866933    7.558935   10.103383
C       8.721501    6.112754   11.222979
O       9.208820    5.307538   11.877502
C       6.174826    6.414880    9.934948
O       5.249327    5.763752    9.834368
C       9.589474    8.627570   10.220176
O      10.570534    9.195704   10.260709
C       8.589483    6.713015    8.442754
O       9.021081    6.251413    7.484988
C       6.984014    9.003684    8.974180
O       6.488080    9.796133    8.321157
P       7.004382    8.625538   12.101181
H       5.966545    9.495318   12.048639
C       6.140416    7.565920   13.390713
F       5.102068    6.969165   12.817254
F       6.930450    6.618968   13.809548
F       5.676466    8.219109   14.417534
C       8.232020    9.505199   13.200060
F       9.186248    8.705965   13.591874
F       8.776073   10.495511   12.529024
F       7.693910   10.053381   14.267414
