28
4314315
Re      1.771604    7.560868    2.209044
Br      0.775383    6.619542    4.483245
O       6.525462    5.141995    3.282607
S       3.522326    8.598849    3.595436
N       5.921977    7.625584    4.078968
N       4.490951    6.228723    2.903478
C       4.718021    7.423872    3.505512
O       2.843830    8.681215   -0.417232
N       3.254079    5.947166    2.331928
C       5.296406    5.092408    2.762496
O      -0.130998    9.937717    2.284298
O      -0.435507    6.122824    0.674430
C       4.616075    4.148560    2.110928
C       0.609849    9.043457    2.282393
C       5.124188    2.796244    1.720368
H       6.084459    2.802967    1.720368
H       4.806532    2.576881    0.842085
H       4.807949    2.141518    2.347169
C       3.344158    4.691504    1.901359
C       2.164084    4.004840    1.295515
H       1.361825    4.469619    1.543187
H       2.121999    3.100494    1.615584
H       2.251204    4.002318    0.339120
C       2.449316    8.224839    0.590603
C       0.429586    6.639713    1.234550
H       6.483304    6.833021    3.924649
H       6.144077    8.270225    4.305683
H       6.708898    4.454491    3.734132
