30
4314351
Ru      8.052369    3.397688    3.449183
Cl     10.051462    4.281074    4.364175
O       8.901448    4.620112    0.991007
O       6.923902    4.892352    4.190723
O       4.821699    5.406288    4.694026
O       7.781344    2.483360    5.213966
O       8.624443    0.907024    6.535656
N       8.459543    4.147344    1.928980
N       6.192370    2.671936    2.941825
N       9.120887    1.650704    3.122765
C       5.217183    3.428896    3.463846
C       3.891087    3.069008    3.331781
C       3.599288    1.930912    2.594505
C       4.591252    1.173952    2.056886
C       5.896839    1.561728    2.252384
C       5.652941    4.675888    4.176165
C       9.267347    0.936240    4.266634
C      10.044463   -0.205840    4.284312
C      10.645905   -0.640096    3.133163
C      10.465226    0.090304    1.964336
C       9.696587    1.227072    1.998652
C       8.531252    1.450176    5.448980
H       3.203064    3.597552    3.724856
H       2.686408    1.666640    2.458280
H       4.391859    0.383792    1.547344
H       6.610270    1.038496    1.888425
H      10.153931   -0.695872    5.102699
H      11.191845   -1.424944    3.141482
H      10.860218   -0.199200    1.134511
H       9.558232    1.730384    1.193784
