29
4315288
C      -2.194944    0.909160    4.671096
C      -2.793610    1.680465    5.660475
C      -2.200356    1.765246    6.911847
C      -1.022724    1.077345    7.165389
C      -0.448684    0.282605    6.177560
C      -1.017953    0.192309    4.906468
C      -0.328366   -0.693416    3.928921
C      -0.033097   -2.044404    4.317827
C       0.635971   -2.925304    3.444937
C       1.013844   -2.477272    2.140602
C       0.748438   -1.154544    1.741132
C       0.067975   -0.265373    2.632756
Cl     -2.427757   -1.009313    0.711327
Cl     -3.186346   -2.441774    3.608190
Cl     -1.527518   -4.169386    1.287854
Ru     -1.092337   -2.088518    2.413160
N      -2.874653    0.854707    3.373381
H      -2.600994    1.440595    2.798826
H      -3.728663    0.978778    3.410145
H      -2.793664    0.104771    2.957994
H      -3.643381    2.170543    5.470881
H      -2.623064    2.317359    7.630217
H      -0.582825    1.152476    8.062648
H       0.384640   -0.230909    6.380817
H      -0.305480   -2.364920    5.224382
H       0.844669   -3.858589    3.734116
H       1.465767   -3.105206    1.507169
H       1.037361   -0.838854    0.838098
H      -0.130171    0.669980    2.339633
