27
4315803
Pt      1.462727    5.546977    6.732198
I      -0.113757    7.474474    6.049844
I       0.324760    3.908619    5.070478
O       2.336648    6.507097    9.348234
H       1.623323    6.081432    9.471597
O       2.007158    2.998847    8.118377
H       1.262656    3.286695    8.380169
N       2.479954    6.787966    7.992190
N       2.653043    3.993229    7.358427
C       3.617734    8.132999    6.347043
H       3.050881    7.611384    5.739648
H       4.560657    7.963779    6.137987
H       3.424125    9.087257    6.236865
C       3.339343    7.726523    7.761474
C       4.086313    8.380722    8.867969
H       3.452880    8.720905    9.533749
H       4.614439    9.125636    8.510123
H       4.684817    7.728268    9.288907
C       4.681515    4.713720    6.334801
H       4.092691    5.409788    5.977898
H       5.109331    4.235719    5.593685
H       5.369018    5.123685    6.899820
C       3.882676    3.757718    7.143720
C       4.562964    2.529569    7.678604
H       4.376221    2.444087    8.637253
H       5.530059    2.604583    7.540175
H       4.226869    1.737552    7.208697
