27
4315805
Pt      5.509943    4.701176   13.521506
I       7.252219    5.243978   15.364755
I       3.774565    4.001637   11.701210
O       7.040500    5.957353   11.432475
H       6.563208    6.533285   11.816713
O       3.376162    6.078171   14.881347
H       3.825536    6.638660   14.446142
N       6.945942    4.740083   12.119205
N       4.026359    4.841825   14.858180
C       7.754636    2.495402   12.379334
H       8.609258    2.357324   12.837706
H       7.627658    1.792293   11.707498
H       7.024290    2.459974   13.031314
C       7.760039    3.836215   11.705843
C       8.692109    4.067860   10.577290
H       8.892931    5.024416   10.511099
H       8.277856    3.762634    9.743286
H       9.521515    3.570051   10.731183
C       4.096602    2.615312   15.715351
H       4.805335    2.538098   15.043514
H       3.404079    1.944906   15.538290
H       4.473932    2.466333   16.607272
C       3.500438    3.969752   15.652469
C       2.315314    4.314039   16.496402
H       2.442292    5.201556   16.890237
H       2.219856    3.649083   17.209608
H       1.508421    4.314948   15.940399
