25
4316212
Hg      7.365450    0.000000    0.000000
Se      6.555951   -0.111710   -2.341741
C       4.645758   -0.058765   -2.133126
C       4.019593    1.048262   -1.559453
H       4.531975    1.746730   -1.221370
C       2.632606    1.110385   -1.491124
H       2.219470    1.841874   -1.092542
C       1.861381    0.080033   -2.017111
H       0.932936    0.125926   -1.980811
C       2.484256   -1.019719   -2.598613
H       1.969189   -1.707553   -2.954490
C       3.873722   -1.099192   -2.651995
H       4.285351   -1.841874   -3.030648
Se      8.174949    0.111710    2.341741
C      10.085142    0.058765    2.133126
C      10.711307   -1.048262    1.559453
H      10.198925   -1.746730    1.221370
C      12.098294   -1.110385    1.491124
H      12.511430   -1.841874    1.092542
C      12.869519   -0.080033    2.017111
H      13.797964   -0.125926    1.980811
C      12.246644    1.019719    2.598613
H      12.761711    1.707553    2.954490
C      10.857178    1.099192    2.651995
H      10.445549    1.841874    3.030648
