27
4316617
C       4.810055    5.472686   13.349632
C       3.729408    6.417216   15.569414
C       6.076046    5.010921   15.544297
C       7.069883    6.771746   13.732943
C       4.693935    8.028197   13.661960
C       6.019402    9.216249   16.420670
H       6.058263    9.572716   15.487146
C       4.645985    9.556814   17.004373
H       3.948607    9.104834   16.484555
H       4.505825   10.525808   16.966879
H       4.603964    9.257737   17.936987
C       7.124419    9.879846   17.228062
C       8.075708   11.970737   17.769903
H       7.904459   11.989595   18.734186
H       8.079660   12.886623   17.421901
H       8.945126   11.552294   17.600270
Cr      5.413708    6.579731   14.686670
N       6.213045    7.753380   16.362973
H       5.894918    7.383152   17.107026
H       6.968517    7.600274   16.335308
O       4.468413    4.751700   12.510025
O       2.690388    6.318237   16.041363
O       6.441926    4.026433   15.983484
O       8.026638    6.834232   13.110654
O       4.239006    8.790467   12.952488
O       7.958336    9.296064   17.870008
O       7.037675   11.209384   17.111030
