27
4316618
C      -2.775170    9.917380    2.982189
C      -3.861022    8.674469    0.699965
C      -4.320454   11.398478    1.172644
C      -2.707939   10.620300   -1.054006
C      -1.650650   12.064157    1.329372
C       0.545552    9.762986    0.987194
H       0.600092   10.036396    1.936924
H       0.573647   10.584146    0.433341
C       1.742667    8.901482    0.652510
C       4.111632    8.802639    0.718073
H       4.196464    8.830725   -0.267872
H       4.129002    7.856257    1.007175
C       5.233236    9.554903    1.353724
H       5.199124   10.492595    1.072114
H       6.087213    9.162788    1.078358
H       5.149660    9.502611    2.329054
Mo     -2.675844   10.313064    0.993008
O      -2.926060    9.669263    4.091955
O      -4.592511    7.809861    0.561346
O      -5.257953   12.058416    1.270053
O      -2.798973   10.761505   -2.177510
O      -1.173526   13.080210    1.536052
O       1.686347    7.877205    0.010740
O       2.866219    9.431233    1.132682
N      -0.727595    9.076048    0.759909
H      -0.715851    8.399352    1.329996
H      -0.726291    8.736071   -0.037465
