27
4316619
C       1.934501    2.880544    4.738122
C       1.841874    0.148713    5.028639
C      -0.603740    1.533981    4.629898
C       0.495787   -0.324927    2.681669
C       2.976719    1.217203    2.651225
C       0.501784    4.055782    1.819956
H       0.451806    4.405359    2.754809
C       1.869196    4.418600    1.246532
H       2.569561    3.969406    1.763523
H       1.997141    5.389307    1.297582
H       1.917842    4.131360    0.310009
C      -0.604407    4.707877    1.010591
C      -1.589983    6.783743    0.480606
H      -1.386070    6.824486   -0.477079
H      -1.624634    7.692316    0.846491
H      -2.456277    6.344735    0.612592
O       2.386307    3.646720    5.457454
O       2.200387   -0.588943    5.848399
O      -1.569325    1.604264    5.230980
O       0.140606   -1.312644    2.228722
O       4.004944    1.158737    2.153911
O      -1.415391    4.110378    0.334698
O      -0.561758    6.031216    1.159284
N       0.311866    2.586073    1.863951
H      -0.573087    2.454778    1.860053
H       0.693035    2.251062    1.126798
W       1.179339    1.346542    3.617543
