27
4316616
C       4.691473    2.934928    4.536494
C       3.726318    1.324810    2.630115
C       4.809978    0.378372    4.850434
C       6.074688   -0.083686    2.655216
C       7.068153    1.677903    4.465921
C       6.017410    4.122028    1.777601
H       6.056254    4.478892    2.710146
C       4.644730    4.463398    1.193192
H       4.601278    4.159845    0.261920
H       4.507133    5.432976    1.227751
H       3.946868    4.015101    1.715213
C       7.121480    4.786115    0.970560
C       8.071494    6.878066    0.426348
H       8.938554    6.446180    0.572950
H       8.093219    7.786585    0.793036
H       7.883861    6.918125   -0.534754
Cr      5.410863    1.485965    3.512640
N       6.212943    2.659304    1.836897
H       5.898906    2.297547    1.100428
H       6.965449    2.491218    1.866181
O       4.235493    3.696258    5.248225
O       2.688150    1.223694    2.157749
O       4.466117   -0.343001    5.688760
O       6.438037   -1.067738    2.216317
O       8.024026    1.740693    5.089618
O       7.955622    4.201739    0.328310
O       7.035498    6.115410    1.088242
