27
4316615
C      -2.744917    3.535008    4.225969
C      -0.256749    4.171161    4.349181
C      -1.251626    2.172175    5.908021
C      -2.279063    0.990703    3.801166
C      -1.251759    2.817118    2.147925
C       1.918749    2.027363    4.045750
H       1.970724    2.287068    4.999566
H       1.966570    2.854594    3.503251
C       3.099039    1.147698    3.708788
C       5.459628    1.007975    3.764386
H       5.558153    1.079533    2.782372
H       5.447263    0.049350    4.010196
C       6.591578    1.701807    4.449099
H       6.601653    2.646398    4.188577
H       7.437727    1.281560    4.187964
H       6.478663    1.631637    5.420079
Cr     -1.197520    2.530780    4.048772
N       0.631441    1.365609    3.798530
H       0.631866    1.059485    2.991403
H       0.616637    0.689359    4.309336
O      -3.689889    4.180260    4.331343
O       0.204416    5.196101    4.559989
O      -1.384703    1.945627    7.020786
O      -2.990767    0.100705    3.685310
O      -1.355042    2.970875    1.024923
O       3.027598    0.130778    3.055399
O       4.229952    1.651685    4.193481
