28
4317925
Re      1.473745    0.366771    6.029013
N       3.257407    1.666545    5.495869
N       0.788692    2.370233    6.034290
O       0.001075   -0.219800    6.291263
Cl      2.193610    0.762740    8.190267
Cl      2.840145   -1.471349    6.021288
Cl      1.396862    0.223081    3.704702
C       4.495132    1.246628    5.219775
H       4.667400    0.332981    5.245779
C       5.493939    2.070059    4.908501
H       6.335961    1.737078    4.694356
C       5.256673    3.410184    4.910795
H       5.940008    4.005613    4.703534
C       4.028075    3.872748    5.212892
H       3.851525    4.786395    5.212892
C       3.045541    2.968943    5.520343
C       1.692470    3.338010    5.852267
C      -0.408792    2.903331    6.357801
C      -0.427114    4.286104    6.441929
C      -1.567707    4.996354    6.806740
H      -1.558817    5.923123    6.881691
C      -2.661066    4.299226    7.040770
H      -3.439066    4.753589    7.273270
C      -2.695136    2.931216    6.955877
H      -3.492005    2.485055    7.133311
C      -1.604150    2.220966    6.620893
H      -1.641889    1.292556    6.565063
S       1.136156    4.912698    6.054940
