29
4317796
Au      0.813055   -0.254075   -1.906768
Cl     -1.174065   -1.263812   -2.269180
Cl     -0.234345    1.744140   -2.113291
N       2.565459    0.670621   -1.583503
N       3.762029    0.078742   -1.867151
C       4.723177    0.982965   -1.613978
H       5.634134    0.841229   -1.735876
C       4.177643    2.114228   -1.161548
H       4.623314    2.892463   -0.914236
C       2.832725    1.893750   -1.135762
H       2.196247    2.506627   -0.847426
N       1.655085   -2.068295   -1.625699
N       2.961037   -2.311084   -1.877700
C       3.226327   -3.569646   -1.529587
H       4.047213   -4.000104   -1.609289
C       2.061351   -4.123467   -1.029101
H       1.945520   -4.987006   -0.703258
C       1.130552   -3.157562   -1.108804
H       0.245321   -3.245491   -0.838049
B       3.936806   -1.299246   -2.555172
H       4.858247   -1.607653   -2.428585
N       3.638653   -1.206068   -4.053112
N       2.420507   -0.926533   -4.539532
C       2.586351   -0.913410   -5.861658
H       1.902454   -0.738864   -6.466460
C       3.873349   -1.183758   -6.229696
H       4.218742   -1.242814   -7.090016
C       4.540345   -1.350429   -5.043534
H       5.447404   -1.531536   -4.942734
