26
4318951
Re      3.561357    7.159126   -0.178091
Cl      1.426236    6.196083   -0.385143
Cl      3.912170    6.556574   -2.405760
O       4.276289    6.023096    0.798487
O       2.719406    8.925167   -0.885624
O       2.310527   11.085691   -0.537078
N       5.267034    8.382011   -0.224971
N       2.874247    8.251364    1.536771
H       2.002054    8.082006    1.676189
H       3.332724    7.992488    2.267133
N       7.142069    9.191301   -0.857106
H       7.886034    9.273560   -1.281699
C       6.315844    8.229589   -1.029795
H       6.430765    7.527963   -1.628660
C       6.700528   10.055026    0.076046
H       7.127552   10.821976    0.384985
C       5.475102    9.559049    0.476874
C       4.523068   10.110673    1.500332
H       4.573876   11.078433    1.479736
H       4.813396    9.821554    2.379619
C       3.072638    9.698165    1.310216
H       2.505289   10.205029    1.928093
C       2.650453    9.999380   -0.128328
O       1.568981    1.568981    0.000000
H       1.670596    0.758482   -0.063372
H       0.758482    1.670596    0.063372
