20
4318343
W       2.396771    1.668145    1.093236
S       3.738762    0.515214    2.612499
S       0.815968    0.249592    1.338906
S       1.817492    3.542856    1.945768
S       2.178521    1.723997   -1.234134
N       4.487958    2.231654    0.432015
C       5.227462    1.541165    2.636311
C       5.511825    2.140454    1.298086
C       6.781476    2.586849    0.972884
C       7.004151    3.105404   -0.285742
C       5.962687    3.183202   -1.171543
C       4.708477    2.732972   -0.802119
C       3.540688    2.805734   -1.721256
H       5.085731    2.264099    3.296920
H       5.985851    1.000442    2.924775
H       7.517765    2.562591    1.632132
H       7.913484    3.446674   -0.513655
H       6.121572    3.529584   -2.076393
H       3.851172    2.568895   -2.626106
H       3.216226    3.738064   -1.745068
