26
4318952
Re      3.634698    7.221497   -0.165647
Br      1.323735    6.284740   -0.300215
Br      3.913508    6.532925   -2.533403
O       4.325475    6.039250    0.783378
O       2.851800    9.034375   -0.860274
O       2.437750   11.183025   -0.469386
N       5.396125    8.375325   -0.264330
N       3.055150    8.372875    1.581174
H       2.190300    8.211175    1.773414
H       3.551275    8.120525    2.286054
N       7.271600    9.134825   -0.996444
H       7.996800    9.200975   -1.454616
C       6.394500    8.173200   -1.098972
H       6.465550    7.449225   -1.678896
C       6.856325   10.016825   -0.046458
H       7.304675   10.787350    0.221076
C       5.643575    9.563575    0.450162
C       4.770150   10.101350    1.472238
H       4.893875   11.062975    1.496268
H       5.061700    9.753450    2.329308
C       3.245025    9.819600    1.334466
H       2.729300   10.354925    1.973664
C       2.784425   10.079300   -0.086508
O       1.506750    1.506750    0.000000
H       1.615775    0.698250   -0.080100
H       0.698250    1.615775    0.080100
