27
4318555
Pd      1.853850    6.409850    0.000000
N       1.142110    5.912446   -1.799039
C       0.632890    6.743162   -2.717575
H       0.617963    7.677718   -2.543549
C       0.128557    6.270115   -3.913862
H      -0.255922    6.866231   -4.546579
C       0.192854    4.911227   -4.175477
H      -0.150272    4.561249   -4.987984
C       0.762886    4.072819   -3.236196
H       0.841996    3.143390   -3.412528
C       1.212939    4.590735   -2.052588
C       1.823370    3.761300   -0.943891
O       1.952049    2.562017   -1.071587
O       2.196306    4.439462    0.113059
N       2.565590    6.907254    1.799039
C       3.074810    6.076538    2.717575
H       3.089737    5.141982    2.543549
C       3.579143    6.549585    3.913862
H       3.963622    5.953469    4.546579
C       3.514846    7.908473    4.175477
H       3.857972    8.258451    4.987984
C       2.944814    8.746881    3.236196
H       2.865704    9.676310    3.412528
C       2.494761    8.228965    2.052588
C       1.884330    9.058400    0.943891
O       1.755651   10.257683    1.071587
O       1.511394    8.380238   -0.113059
