29
4319150
W       0.393864    1.081688    4.076442
Se      1.121984   -1.173910    5.072752
Se      2.223869    2.081063    5.579491
S       3.097262   -1.867507    7.442591
S       4.118899    0.781069    7.734280
S       5.218044   -1.433203    9.446554
C       2.430490   -0.672493    6.382517
C       2.879359    0.584953    6.529664
C       4.206617   -0.842821    8.272441
C       1.666901    2.151162    2.512235
H       2.148843    2.911873    2.746751
C       0.433580    2.110446    1.983424
H      -0.092709    2.852834    1.787227
C       0.069710    0.836035    1.785695
H      -0.750471    0.570703    1.436220
C       1.039670    0.000000    2.153563
H       1.020713   -0.928325    2.101448
C       2.096211    0.790569    2.639456
H       2.913054    0.490628    2.973603
C      -1.014401    0.980577    5.905821
H      -0.746597    0.524558    6.670680
C      -0.849595    2.322169    5.665173
H      -0.463441    2.926123    6.258361
C      -1.313454    2.630254    4.465003
H      -1.284554    3.470360    4.068011
C      -1.860031    1.461704    3.893274
H      -2.278843    1.408095    3.064037
C      -1.669733    0.409874    4.770027
H      -1.917393   -0.479092    4.648937
