21
4320448
Mo      1.955557    2.011775    6.515952
O       0.777641    2.011775    5.332192
O       3.293418    2.011775    8.381246
H       3.881996    1.342256    8.559743
O       3.178876    3.355641    5.899001
O       2.195612    3.926180    6.829782
O       0.462997    2.011775    7.957721
N       0.722440    2.011775    9.286712
C       0.829392    3.185042    9.924433
H       0.761081    3.983315    9.450605
C       1.039155    3.200332   11.272897
H       1.127476    4.008261   11.725630
C       1.117816    2.011775   11.956054
H       1.225458    2.011775   12.879370
H       3.881996    2.681294    8.559743
C       0.829392    0.838508    9.924433
H       0.761081    0.040236    9.450605
C       1.039155    0.823218   11.272897
H       1.127476    0.015289   11.725630
O       3.178876    0.667909    5.899001
O       2.195612    0.097370    6.829782
