23
4320122
Re      5.406380    2.291217    2.679769
Cl      7.233735    3.030183    4.368514
S       4.078002    3.889188    3.650769
S       6.312338    3.822724    1.225384
O       4.395517    1.321236    1.741483
N       4.909046    1.151047    4.485553
N       7.148947    1.110765    2.125032
C       3.819741    3.183253    5.318926
C       3.753565    1.678736    5.245601
C       7.902394    3.023134    0.795301
C       7.757498    1.522644    0.837604
H       2.906012    3.665626    5.682734
H       4.608525    3.434006    5.922452
H       2.986263    1.369574    4.836669
H       3.642978    1.218518    6.190373
H       4.725866    0.261830    4.300829
H       5.594079    1.148026    4.991781
H       8.144369    3.282950   -0.197415
H       8.637828    3.262810    1.353703
H       7.175842    1.228589    0.169213
H       8.531724    0.986899    0.564043
H       6.843542    0.100704    2.115162
H       7.648047    1.127885    2.651002
