15
4321399
Pt      3.491108    2.049504    1.726799
S       0.957049    2.627153   -0.001727
S       2.679628   -0.870309    2.419246
F       0.883994    1.147628   -0.402344
F       4.140784   -1.256785    2.825907
O       1.561392    2.526846    1.347767
O       1.812391    3.230469   -0.930745
O      -0.371620    3.063783    0.082023
O       2.701498    0.547262    2.825907
O       2.765202   -1.075348    1.011041
O       1.913965   -1.607859    3.243793
C       5.223411    1.532629    2.198216
C       4.145651    3.538765    0.751158
O       6.263768    1.166804    2.442558
O       4.497561    4.419400    0.187358
