27
4321979
Pt      1.762980    2.176448    7.455018
S       1.291878    3.786098    5.954621
N       1.393069    0.598076    6.201084
C       1.541926    5.278424    6.819850
C       1.548832   -0.637031    6.752755
C       1.292957   -1.783917    6.016199
C       0.867770   -1.653303    4.696661
C       0.747493   -0.419341    4.134553
C       1.013989    0.689735    4.908384
H       1.357294    6.118252    6.381495
H       1.407722   -2.658117    6.411315
H       0.654717   -2.428969    4.174810
H       0.479661   -0.320807    3.220568
H       0.927393    1.558206    4.517741
S       2.234083    3.786098    8.955415
C       1.984034    5.278424    8.090185
H       2.168667    6.118252    8.528541
N       2.132892    0.598076    8.708952
C       1.977129   -0.637031    8.157281
C       2.233003   -1.783917    8.893836
C       2.658191   -1.653303   10.213375
C       2.778468   -0.419341   10.775483
C       2.511971    0.689735   10.001652
H       2.118239   -2.658117    8.498720
H       2.871244   -2.428969   10.735226
H       3.046300   -0.320807   11.689468
H       2.598568    1.558206   10.392295
