29
4322379
W       0.579080    4.839330   10.365823
S      -0.498199    4.885997   12.478776
S       2.496134    4.788411   11.770513
S      -1.304324    3.677229    9.501829
S       1.699529    3.365942    8.875174
C      -0.776997    6.321097   10.091598
C       1.849998    6.115208    9.422788
O      -1.527069    7.162455    9.929462
O       2.545549    6.845547    8.898549
C       3.111282    4.636447   14.447644
H       3.959594    4.641013   13.999069
H       3.018361    3.823259   14.948914
H       3.059744    5.387259   15.043493
C       2.004084    4.727266   13.428891
C       0.676801    4.743827   13.735598
C       0.135740    4.678431   15.142126
H      -0.823486    4.704227   15.117805
H       0.462870    5.426591   15.646097
H       0.423087    3.862101   15.558274
C       1.094222    1.312216    7.148834
H       2.051344    1.382696    7.117758
H       0.733203    1.477855    6.274653
H       0.848002    0.429294    7.435274
C       0.546598    2.325909    8.118946
C      -0.788599    2.471108    8.383768
C      -1.874529    1.649287    7.740630
H      -2.728979    1.927215    8.078412
H      -1.736601    0.721061    7.946002
H      -1.850055    1.773981    6.789433
