26
4322736
Re      1.789073    1.677970    3.972947
Cl      0.627587   -0.067802    5.051109
Cl      3.387793    1.658837    5.738217
O       1.018997    3.099406    4.464819
O       2.837420    0.368734    2.985275
N       2.980577    2.919218    2.631756
N       0.554223    1.669982    2.244776
C       4.118773    2.116735    2.113842
C       3.601693    0.743040    1.856341
C       0.933244    2.530980    1.259868
C       0.248853    2.588566    0.081469
C      -0.857579    1.778652   -0.126569
C      -1.240060    0.929729    0.885981
C      -0.512140    0.876787    2.044011
C       2.060865    3.452350    1.571197
H       3.330721    3.665974    3.139485
H       4.481933    2.504974    1.323879
H       4.826969    2.073082    2.774327
H       3.053225    0.737467    1.057649
H       4.315234    0.115171    1.710859
H       0.538752    3.200645   -0.612476
H      -1.349791    1.811160   -0.967450
H      -2.014594    0.360374    0.776870
H      -0.774372    0.258206    2.742321
H       1.681390    4.303130    1.859250
H       2.550192    3.627893    0.766686
