25
4322295
W       9.283039    6.669238    2.151185
P       8.174645    6.054606    0.036941
H       7.361553    6.574713   -0.059516
H       8.758354    6.274734   -0.704953
P       9.180073    4.215887    2.371393
H      10.080979    3.856560    2.372419
H       8.766221    3.987127    3.217953
O       9.142515    9.764414    1.547408
O      10.803041    6.950225    4.903889
O       6.584717    7.021443    3.763855
O      12.216141    6.426881    0.927624
C       9.205286    8.629243    1.739295
C      10.230130    6.847715    3.894174
C       7.552610    6.872533    3.162541
C      11.130347    6.503495    1.316528
C       7.764301    4.284947   -0.027706
C       8.221318    3.448676    1.000480
C       7.923007    2.089060    0.967643
H       8.228662    1.536581    1.650022
C       7.183556    1.552767   -0.055411
H       6.978746    0.646357   -0.056437
C       6.753698    2.349114   -1.068204
H       6.266643    1.972522   -1.764948
C       7.026544    3.722757   -1.089753
H       6.726949    4.254734   -1.791628
