27
4322100
Ru      6.370134    4.997134   10.194360
Cl      5.084018    5.905607    8.224456
C       5.477838    5.916945   11.541092
O       4.952262    6.451388   12.410721
C       7.684886    6.301368   10.287471
O       8.511882    7.079112   10.392881
N       7.335435    3.719248    8.810483
N       5.081731    3.314237   10.118063
C       8.500377    3.974241    8.173006
C       9.061726    3.121827    7.274515
C       8.430063    1.950338    6.990913
C       7.246991    1.663224    7.625880
C       6.714486    2.548424    8.541939
C       5.475398    2.310002    9.299884
C       4.736850    1.134428    9.198239
C       3.599861    0.994817    9.959949
C       3.200248    2.001498   10.774363
C       3.959779    3.149385   10.828323
H       8.815361    4.720604    8.370021
H       9.846174    3.392525    6.851622
H       8.794293    1.331708    6.362220
H       6.810441    0.919382    7.504157
H       5.040043    0.499944    8.545704
H       3.119595    0.310901    9.875872
H       2.445319    1.937247   11.293882
H       3.748898    3.776976   11.356626
H       7.222128    4.242502   11.419369
