23
4322634
Ti      1.920590   -2.148845    2.909194
Se      0.678039    0.322016    3.155880
Se      0.776039   -1.855761    0.431734
Cl      3.508044   -0.848684    1.856851
Cl      2.760893   -1.868838    4.978402
Cl      2.781318   -4.137173    2.307344
Cl     -0.098633   -2.942607    3.545245
C       2.047639    1.462967    3.914063
H       1.655050    2.332574    4.011053
H       2.344067    1.145855    4.770383
H       2.797288    1.515274    3.315531
C      -0.424930    0.187979    4.747412
H      -0.894508    1.008548    4.910764
H      -1.057046   -0.524707    4.632555
H       0.145995   -0.008173    5.493981
C       2.110068   -2.569591   -0.770816
H       1.758095   -2.491130   -1.660318
H       2.938166   -2.087384   -0.710836
H       2.263723   -3.496409   -0.569179
C      -0.520116   -3.267565    0.225885
H      -0.938372   -3.192374   -0.634264
H      -0.069588   -4.112654    0.289694
H      -1.188105   -3.208720    0.912473
