22
4323782
Ir      1.281881    7.594797    3.059150
S       1.860495   10.637204    2.275610
S      -1.171092    7.425093    1.122024
S       3.659548    8.055625    5.056579
F       0.480387   11.151409    1.811258
F      -2.013587    8.518616    1.814845
F       3.157192    9.353749    5.725489
O       1.473035    9.627838    3.294936
O       2.445819   10.069210    1.125013
O       2.473756   11.736903    2.892036
O       0.224047    7.954998    1.354558
O      -1.487409    7.505904   -0.249870
O      -1.427634    6.249988    1.842343
O       2.352439    7.348915    4.775027
O       4.340836    8.463284    3.887929
O       4.348117    7.361783    6.067416
O       0.928886    4.584868    3.040284
O       3.676978    7.386232    1.074799
O      -1.215781    7.966579    4.867084
C       1.061482    5.670928    3.021155
C       2.853451    7.468587    1.819627
C      -0.312418    7.794148    4.247789
