25
4323842
Se     -0.595670    0.340073    5.118143
Se     -1.339166   -0.249093    3.006542
Zn     -1.017069    3.039642    2.537483
Cl      0.244127    4.915959    2.586781
Cl     -2.959997    3.155743    1.452915
N      -1.570149    2.974746    4.538134
C      -1.460379    2.021858    5.485155
C      -1.893179    2.186977    6.796073
H      -1.825676    1.479952    7.427049
C      -2.428003    3.416378    7.155518
H      -2.712039    3.573876    8.048010
C      -2.541083    4.408084    6.202933
H      -2.898715    5.258626    6.426612
C      -2.126257    4.135557    4.929852
H      -2.238712    4.814450    4.274393
N       0.297091    1.672584    1.768292
C       0.154525    0.354787    1.951910
C       0.997458   -0.569453    1.356544
H       0.879397   -1.498932    1.512340
C       2.007260   -0.123148    0.537498
H       2.593731   -0.741619    0.116847
C       2.162188    1.242034    0.330511
H       2.848527    1.573036   -0.237033
C       1.292745    2.106342    0.971503
H       1.401693    3.041579    0.844640
