30
4323728
Pt      0.257237    3.291750   -0.098476
Cl     -1.075501    4.984105   -0.945278
N       1.445759    4.792788    0.651787
H       0.886652    5.490639    0.657747
C       2.583169    5.116696   -0.272633
H       3.203466    6.102905    0.183990
H       3.165072    4.492580   -0.245072
H       2.236427    5.514340   -1.125544
C       1.862090    4.618984    2.058159
H       2.613164    5.301034    2.209373
C       0.677887    4.909974    2.947569
H      -0.051591    4.378027    2.667487
H       0.902250    4.763821    3.749827
H       0.347942    5.959384    2.847008
C       2.575971    3.291750    2.303976
H       3.021096    3.291750    3.068988
H       3.246659    3.291750    1.723699
N       1.445759    1.790712    0.651787
H       0.886652    1.092861    0.657747
C       2.583169    1.466804   -0.272633
H       3.203466    0.480595    0.183990
H       3.165072    2.090920   -0.245072
H       2.236427    1.069160   -1.125544
C       1.862090    1.964516    2.058159
H       2.613164    1.282466    2.209373
C       0.677887    1.673526    2.947569
H      -0.051591    2.205472    2.667487
H       0.902250    1.819679    3.749827
H       0.347942    0.624116    2.847008
Cl     -1.075501    1.599395   -0.945278
