30
4323729
Pt     -0.562425    3.666509    2.958814
I       0.518827    1.830257    1.489069
I      -2.161503    1.998724    4.120066
N       0.704773    5.052412    2.045988
H       0.971546    4.662794    1.269031
N      -1.359792    5.123395    4.172660
H      -2.149970    4.768480    4.452564
C       1.960849    5.274826    2.833903
H       2.351197    4.426184    3.059021
H       1.753643    5.754355    3.638751
H       2.582742    5.782748    2.308958
C       0.048274    6.314332    1.647548
H       0.772785    6.897970    1.340750
C      -0.783847    6.020936    0.410393
H      -0.248861    5.544561   -0.230099
H      -1.085798    6.845916    0.024902
H      -1.541909    5.484620    0.654437
C      -0.595551    7.041514    2.777125
H      -0.915540    7.888577    2.428490
H       0.102702    7.249730    3.418613
C      -1.744734    6.412131    3.552091
H      -1.967778    7.025740    4.282231
C      -0.591590    5.309528    5.413800
H      -0.362911    4.451423    5.780365
H      -1.121924    5.796945    6.048316
H       0.211420    5.800100    5.222549
C      -3.036171    6.200759    2.729312
H      -3.708875    5.803255    3.287128
H      -2.851963    5.618699    1.988214
H      -3.349956    7.046246    2.402592
