25
4323028
Pt     -1.907696   10.525097    9.624578
Cl     -1.000220   11.786135   11.319966
Cl     -0.378830   11.504879    8.222739
Cl     -2.703802    9.332451    7.808468
N      -3.280638    9.551113   10.894762
N      -4.879597    8.184471   12.348108
H      -5.398639    7.698159   12.864113
C      -3.369502   10.087121   12.289441
H      -2.503482   10.000744   12.717445
H      -3.592073   11.030163   12.253441
C      -2.853068    8.130042   11.002763
H      -1.931959    8.095728   11.305432
H      -2.896177    7.715908   10.128089
C      -4.668183    9.580694   10.350757
H      -4.653833    9.306183    9.420082
H      -5.009215   10.487056   10.390758
C      -4.394807    9.371261   13.106781
H      -4.005773    9.088466   13.949455
H      -5.137033    9.966431   13.298783
C      -3.717182    7.355020   11.961438
H      -4.022534    6.536218   11.540101
H      -3.203681    7.118372   12.749445
C      -5.591472    8.660134   11.132097
H      -6.396254    9.138163   11.385433
H      -5.846819    7.904043   10.581426
