25
4323295
Re      0.850641    3.591682    1.295921
O       1.099993    5.354824    1.815709
O       3.097512    3.917361    1.673698
O      -0.852593    3.651814    1.170864
O       1.375473    3.128402   -0.263734
O       1.118701    2.338346    2.401141
C       2.294724    5.974799    2.393896
C       3.488317    5.306543    1.663555
C       2.261918    5.640122    3.874865
C       2.148957    7.472613    2.153347
C       3.627007    5.760825    0.215914
C       4.803269    5.453581    2.393896
H       3.745044    3.412603    1.257810
H       1.508402    6.077945    4.283508
H       3.071444    5.950658    4.289304
H       2.183819    4.693152    3.989343
H       1.395146    7.803998    2.638792
H       2.946595    7.920311    2.453308
H       2.029287    7.633916    1.215786
H       4.376814    5.324100   -0.189831
H       3.763926    6.715476    0.192729
H       2.827605    5.545754   -0.266632
H       5.499199    5.025634    1.893960
H       5.009995    6.390675    2.489535
H       4.734603    5.055261    3.261900
