29
4323419
W       1.247617    2.068672    2.681383
C       2.709591    0.594384    1.642040
H       2.628862    0.388229    0.718104
C       3.497176    1.632903    2.194784
H       4.022068    2.266605    1.718361
C       3.343623    1.536503    3.611333
H       3.767911    2.096244    4.250803
C       2.469371    0.486581    3.906206
H       2.194231    0.203578    4.771168
C       2.076749   -0.069275    2.680458
H       1.469502   -0.792104    2.577541
C       0.971555    3.624736    1.484775
O       0.838742    4.523076    0.770140
C      -0.292677    1.988161    3.870359
O      -1.228920    1.895748    4.591932
C      -0.163854    1.447360    1.466273
O      -1.019121    1.092181    0.762046
Se      1.448367    4.183680    4.230567
C       2.643470    5.507999    3.358088
H       2.268167    5.723594    2.467686
H       2.627468    6.339514    3.894643
C       4.008077    5.113858    3.184633
C       4.819277    4.959674    4.428884
H       5.722848    4.661152    4.194141
H       4.397513    4.295929    5.014005
H       4.869746    5.820762    4.893743
C       4.498740    4.869919    1.943852
H       3.935786    4.960168    1.184119
H       5.405908    4.608880    1.833997
