29
4323845
W       2.855734    3.593570    2.340625
Se      0.340989    2.979068    1.738325
Se      4.507021    5.423452    3.273553
C       4.630576    2.726121    2.327010
O       5.656906    2.213287    2.315769
C       3.108982    2.935625    0.527106
O       3.246221    2.623297   -0.594556
C       2.581153    1.904815    3.409951
O       2.433477    0.943410    3.992016
N       1.348864    4.537109    3.690991
C       0.144528    4.151519    3.218844
C      -1.058032    4.623224    3.763437
H      -1.894653    4.382873    3.383720
C      -0.987833    5.441960    4.863864
H      -1.782445    5.770997    5.266063
C       0.242152    5.781279    5.379728
H       0.289135    6.328817    6.155398
C       1.389901    5.345563    4.797663
H       2.228914    5.603908    5.159893
N       2.742475    5.537072    1.304025
C       3.632577    6.348097    1.887339
C       3.827925    7.648820    1.437675
H       4.455323    8.222064    1.862358
C       3.081739    8.090963    0.352237
H       3.201390    8.968823    0.009993
C       2.160614    7.232383   -0.224832
H       1.631774    7.524146   -0.958034
C       2.013129    5.963792    0.263553
H       1.384819    5.376410   -0.139895
