29
4323844
Mo      2.843841    3.614523    2.344392
Se      0.334180    2.981949    1.749861
Se      4.519539    5.429774    3.278226
C       4.627211    2.791108    2.328651
O       5.650015    2.256339    2.311161
C       3.107150    2.958626    0.509705
O       3.219076    2.662248   -0.585911
C       2.592849    1.926457    3.408026
O       2.448922    0.958718    3.988939
N       1.332512    4.550047    3.719096
C       0.135938    4.167332    3.216887
C      -1.049391    4.624785    3.759073
H      -1.882799    4.370931    3.380542
C      -1.004818    5.450778    4.852189
H      -1.809945    5.772928    5.239465
C       0.213478    5.812875    5.385630
H       0.257601    6.373416    6.151437
C       1.362623    5.348979    4.792224
H       2.202628    5.602833    5.154514
N       2.748920    5.557732    1.304245
C       3.651021    6.366973    1.883909
C       3.851747    7.667170    1.455407
H       4.490542    8.229000    1.878912
C       3.094559    8.125912    0.393522
H       3.205743    9.015046    0.077455
C       2.171849    7.281879   -0.209878
H       1.648147    7.584700   -0.941954
C       2.027748    6.003587    0.267345
H       1.401309    5.422429   -0.146165
