30
4324483
Re      0.217144    2.879179    9.098865
O      -0.997368    4.473357    8.381585
O       1.307691    4.386284   10.133119
C      -2.118053    6.538611    8.226904
H      -2.292863    6.276033    7.298818
H      -1.845673    7.478723    8.254201
H      -2.932480    6.417526    8.759188
C      -1.014985    5.680129    8.792551
C      -0.139577    6.227054    9.741868
H      -0.313033    7.123630   10.004219
C       0.940453    5.617546   10.334811
C       1.794179    6.365826   11.305358
H       1.420166    7.261042   11.446391
H       2.703464    6.444736   10.947469
H       1.818571    5.884206   12.157620
N      -1.084096    3.115568   10.841316
N      -1.836188    3.353657   12.929508
H      -1.875486    3.395833   13.807550
C      -2.386366    3.363181   10.820085
H      -2.909443    3.423043   10.029999
C      -2.866079    3.519639   12.057532
H      -3.767234    3.711471   12.288037
C      -0.727699    3.111486   12.168236
H       0.147708    2.964551   12.503378
O       2.042166    2.833942    6.639149
C       1.363251    2.851629    7.582400
O       1.886327    0.608148   10.287800
C       1.257551    1.463909    9.838922
O      -1.501473    0.696581    7.812905
C      -0.852370    1.526492    8.272398
