25
4324184
Pd      3.884638    3.722403    8.822519
Cl      3.126320    4.571523   10.825643
Cl      2.914017    1.751951    9.468582
N       4.502030    7.015305    9.674447
H       4.607339    7.830570    9.987827
H       4.010235    6.434280   10.116111
C       5.657486    2.107245    4.673203
H       6.043746    1.813530    3.856156
N       4.891359    5.388435    8.069675
C       5.320648    3.776205    6.337841
N       4.544887    2.948130    7.067227
N       5.816548    7.578945    7.906571
C       5.078319    6.664860    8.546159
N       7.148747    8.061150    6.116857
H       7.276068    8.868180    6.443217
H       7.531447    7.825995    5.360439
C       6.381988    7.200135    6.765454
C       5.903117    3.382755    5.152741
H       6.465587    3.978420    4.671676
C       4.842248    1.275510    5.404728
H       4.647858    0.400770    5.088599
C       5.512291    5.133150    6.889157
N       6.248810    5.962140    6.202685
C       4.306448    1.711965    6.603572
H       3.758099    1.123620    7.107545
