26
4326918
Ni      2.984061    1.971044    2.267238
O       1.908645    2.814549    4.672436
N       2.309731    2.398004    3.684922
O       1.829241    3.146831   -0.580436
C       4.885115    2.288135    1.311606
H       5.651746    2.682707    1.660899
C       3.933102    3.086833    0.648419
H       4.055693    4.005908    0.583717
C       2.788681    2.481122    0.081931
C       2.574051    1.104419    0.271933
H       1.793705    0.710803   -0.045713
C       1.899298    4.578181   -0.604816
H       1.920636    4.913519    0.294203
H       1.129875    4.928805   -1.059600
H       2.695596    4.851420   -1.066632
C       4.694651    0.910477    1.449917
H       5.333154    0.388840    1.878914
C       3.530049    0.321963    0.935354
H       3.390496   -0.592336    1.034985
P       4.407802    6.368850    3.030408
F       5.428050    7.490657    2.517956
F       3.364410    7.510147    3.427992
F       5.076046    6.446044    4.473526
F       3.763821    6.303884    1.562909
F       3.394582    5.247616    3.525747
F       5.453256    5.231852    2.608209
