27
4326612
Zn      0.467469   -2.859949    6.750373
Cl     -1.332902   -4.106266    6.338998
Cl      2.129177   -3.898550    7.749841
N      -0.178899   -1.051979    7.496247
N       0.944797   -1.654869    5.122498
C      -0.682501   -0.749233    8.694372
H      -0.732442   -1.429475    9.354372
C      -1.138420    0.529331    9.012184
H      -1.476710    0.722425    9.878434
C      -1.088132    1.512915    8.037185
H      -1.404193    2.388571    8.221872
C      -0.571172    1.203675    6.792185
H      -0.533443    1.861198    6.107810
C      -0.109399   -0.079031    6.560623
C       0.541349   -0.448007    5.292186
H       0.660779    0.199244    4.607811
C       1.620575   -2.064372    3.934686
C       1.853557   -1.230978    2.836874
H       1.548537   -0.331855    2.842499
C       2.535131   -1.733412    1.741874
H       2.696249   -1.171638    0.992812
C       2.985141   -3.047235    1.723124
H       3.453395   -3.377955    0.965625
C       2.752435   -3.871881    2.804999
H       3.059212   -4.771016    2.791874
C       2.068630   -3.387828    3.913124
H       1.905137   -3.956887    4.656561
