29
4328854
Mn      0.656421    7.956457    4.553868
Br      0.491438    8.268945    2.036449
N       2.633182    7.510819    4.242930
N       1.515846    9.808871    4.642145
C       0.695197    7.739470    6.337968
O       0.648197    7.593965    7.465892
C       0.068463    6.249778    4.367755
O      -0.305251    5.174659    4.286787
C      -1.061411    8.479696    4.690501
O      -2.161027    8.777635    4.797333
C       3.182130    6.313292    4.055130
H       2.633856    5.562672    4.083243
C       4.530132    6.135452    3.820099
H       4.877713    5.283210    3.693024
C       5.352159    7.234822    3.777366
H       6.266672    7.133200    3.635672
C       4.806605    8.491244    3.947173
H       5.341180    9.251103    3.906689
C       3.451829    8.595176    4.179955
C       2.767114    9.849289    4.417235
H       3.227459   10.657649    4.405990
C       0.841157   11.061829    5.004250
H      -0.022272   11.104557    4.565676
H       1.371298   11.815914    4.701746
C       0.654608   11.141510    6.506650
H       0.089639   11.901369    6.716941
H       0.201117   10.340079    6.812528
O       1.872167   11.270848    7.190377
H       2.227500   10.534086    7.256725
