22
4329975
C       4.410799    4.681705    4.359695
C       5.541003    2.322690    4.722446
C       7.508701    1.881736    2.027571
H       7.847488    1.280382    1.318338
H       7.757041    1.492269    2.903682
C       8.151634    3.241297    1.882595
H       7.860618    3.652965    1.042989
H       9.127376    3.142585    1.877380
H       7.885788    3.810471    2.635634
C       5.397251    0.621764    1.926610
H       5.604801    0.161394    2.778523
H       5.781135    0.085296    1.187965
C       3.899889    0.707696    1.756394
H       3.516250    1.219621    2.499002
H       3.519119   -0.195394    1.751179
H       3.691754    1.154749    0.909487
N       6.024081    1.974114    1.930782
H       5.874199    2.267041    1.126428
O       3.972528    5.499758    5.007912
O       5.767402    1.667921    5.620773
Cl      4.611536    4.664032    1.388010
Rh      5.151186    3.376124    3.266162
