29
4329986
I      -2.541132   10.288468   12.763533
I      -5.131052    9.528067    8.158896
Rh     -3.735472    9.918007   10.399678
O      -5.298080   12.437953   10.771749
O      -5.065290    7.561267   11.266848
N      -2.204336   11.165830    9.332878
N      -1.566998   12.233945    9.838103
H      -1.667085   12.435354   10.688714
N      -2.488970    8.274643    9.968811
N      -2.914541    7.024610    9.707240
H      -3.762141    6.834897    9.814735
C      -4.746242   11.462096   10.660672
C      -5.113899    8.759323   11.363282
C      -6.190988    9.398633   12.148461
H      -6.855598    8.724239   12.400840
H      -6.619858   10.095116   11.607871
H      -5.810355    9.801450   12.957008
C      -0.724006   12.775799    8.932967
H      -0.161509   13.530756    9.063830
C      -0.833888   12.042932    7.809725
H      -0.368451   12.172873    6.991830
C      -1.759202   11.065776    8.093262
H      -2.042687   10.403076    7.474777
C      -1.184215    8.246056    9.708798
H      -0.603838    8.994516    9.792924
C      -0.783451    6.988227    9.303746
H       0.093722    6.707554    9.068503
C      -1.925432    6.231970    9.314651
H      -1.996022    5.313287    9.085640
