19
4329207
Au      4.788078   16.722416    2.090375
Cl      5.894830   14.902956    1.308162
Cl      3.601135   18.523762    2.806539
N       5.319309   17.774034    0.384513
H       5.564362   17.199402   -0.264316
H       4.616873   18.250812    0.088105
Cl      4.420679   15.689952    4.062771
C       6.164721   20.014266    0.827375
H       5.317949   20.359878    0.662833
C       7.662659   18.121728    0.916064
H       7.807681   17.207730    0.815122
C       7.208134   20.834574    1.204886
H       7.063926   21.748572    1.304078
C       6.416649   18.656802    0.700176
N      10.309252   21.935952    2.162377
C       8.705551   18.969102    1.296492
H       9.557778   18.629736    1.451115
C       8.457703   20.309910    1.436528
C       9.522519   21.182268    1.827459
