30
4329317
Mn      0.751711    2.947788    3.250972
N      -0.990398    3.976989    3.136355
N      -1.872445    3.448447    2.236288
N      -0.390406    1.746015    2.059516
H      -0.125027    0.958278    1.839446
N       1.263344    3.901328    1.486830
N       1.752685    3.249754    0.417959
H       1.869481    2.398402    0.382499
N      -2.436806    1.769025    0.788239
N      -2.065798   -0.426353   -0.269608
C       0.270022    2.123642    4.771935
O       0.008780    1.603898    5.738806
C       1.622059    4.205324    4.206156
O       2.186796    5.002536    4.796771
C       2.242091    1.943626    3.237956
O       3.204141    1.321016    3.286167
C      -1.518872    2.206205    1.649525
C      -2.200434    0.582005    0.245702
C      -1.554215    5.082393    3.571315
H      -1.177331    5.652216    4.202171
C      -2.787774    5.285418    2.967020
H      -3.374664    5.993298    3.105144
C      -2.952705    4.228334    2.128976
H      -3.686750    4.075388    1.579135
C       1.259146    5.174430    1.136871
H       0.974779    5.868776    1.685384
C       1.731915    5.340911   -0.150078
H       1.825945    6.135415   -0.622888
C       2.030366    4.083510   -0.573748
H       2.368455    3.850707   -1.407807
