22
4329979
I       1.356654    4.293724    9.475304
Rh      2.349756    5.481957    7.331002
O       0.950202    3.420383    5.677996
O       3.562844    6.675366    4.889205
N       3.163761    7.008693    8.579579
H       2.883412    6.754910    9.371606
C       1.501956    4.184256    6.299532
C       3.113051    6.244820    5.820431
C       4.660489    7.055409    8.636769
H       5.011378    7.316767    7.748705
H       4.938627    7.747314    9.288519
C       5.250038    5.747355    9.030624
H       4.930168    5.501148    9.923004
H       6.226841    5.820586    9.042494
H       4.981166    5.060501    8.385349
C       2.604852    8.360937    8.303340
H       2.845196    8.634921    7.382905
H       3.001762    9.016227    8.931351
C       1.101769    8.371038    8.453329
H       0.711273    7.685446    7.871718
H       0.754462    9.251070    8.199751
H       0.865463    8.182911    9.385634
