27
4329602
Pt      0.604465    2.052769    3.244997
Cl     -0.497234    0.229788    4.130316
Cl      1.718879    3.897116    2.427499
O       1.876836   -0.083651    1.736532
H       1.892077   -0.538187    1.029683
O      -0.714801    4.112995    4.881554
H      -1.081099    4.124081    4.125239
N       1.019677    1.001793    1.571210
N       0.231389    3.075928    4.928417
C       0.607757    1.157000    0.372300
H       0.901086    0.535163   -0.282479
C      -0.302718    2.250507   -0.061182
H      -0.539718    2.815905    0.715961
H      -1.137733    1.864504   -0.428275
C       0.394389    3.109186   -1.140331
H      -0.198361    3.839870   -1.412396
H       0.604300    2.550843   -1.918776
H       1.225267    3.482087   -0.774540
C       0.797072    2.935838    6.068749
H       1.446223    2.247483    6.141646
C       0.539489    3.739086    7.279374
H      -0.415679    4.003140    7.287185
H       1.078228    4.567531    7.232511
C       0.854163    3.030575    8.573311
H       0.649221    3.622177    9.327023
H       1.803735    2.792725    8.591536
H       0.311467    2.217248    8.641002
