15
4329977
Rh      4.402216    2.615172    8.441077
Cl      4.014856    2.661484   10.773582
O       4.926587    2.697863    5.508368
O       7.321378    2.537065    9.013714
N       2.343068    2.581423    8.092650
N       1.447379    2.836347    9.058583
H       1.748302    2.968474    9.858750
C       1.616221    2.319196    7.001061
H       1.978566    2.101599    6.150246
C       0.260150    2.408521    7.282966
H      -0.464217    2.268617    6.683917
C       0.190980    2.741274    8.606719
H      -0.601780    2.879893    9.112064
C       4.735376    2.655533    6.620919
C       6.218204    2.582370    8.775432
