18
4329980
I       7.017152    4.916623    7.793512
Rh      4.586298    4.900859    8.873117
O       5.907389    4.753473   11.541516
O       1.880430    4.816832   10.143171
N       3.659244    5.018979    6.990357
N       3.165553    4.617702    4.891589
C       5.401847    4.802501   10.523411
C       2.905168    4.859826    9.677170
C       4.053308    4.427624    5.873637
H       4.859800    3.933570    5.782644
C       2.143692    5.375754    5.400471
H       1.369203    5.672940    4.938678
C       2.459557    5.614860    6.690305
H       1.932897    6.119474    7.297687
C       3.243454    4.098758    3.530552
H       4.180622    3.955444    3.289419
H       2.841281    4.743667    2.911795
H       2.758494    3.249438    3.477093
