27
4330309
Cr      1.691763    2.539145    3.634552
S      -2.472796    4.113902    5.456335
O       1.855098    4.118469    2.301398
N       0.046958    3.350358    4.522837
C      -0.324846    4.844518    1.644998
H      -0.610639    3.938922    1.889240
H      -0.640691    5.054280    0.741449
H      -0.702265    5.488231    2.280318
C       1.166774    4.923199    1.682798
C       1.805921    6.036330    0.922449
H       2.724723    6.163189    1.239382
H       1.295465    6.861069    1.059835
H       1.818406    5.814647   -0.031984
C      -0.999164    3.681048    4.901557
S       5.856323    0.964389    1.812769
O       1.528429    0.959821    4.967706
N       3.336569    1.727932    2.746268
C       3.708373    0.233773    5.624106
H       3.994166    1.139369    5.379864
H       4.024218    0.024011    6.527656
H       4.085792   -0.409940    4.988786
C       2.216753    0.155092    5.586307
C       1.577606   -0.958039    6.346655
H       0.658804   -1.084898    6.029722
H       2.088062   -1.782778    6.209269
H       1.565121   -0.736356    7.301089
C       4.382691    1.397242    2.367547
