29
4330448
Pt      4.364118    5.710188    6.483446
Cl      4.364118    3.376245    6.483446
N       6.084860    6.130554    5.437450
N       4.364118    7.602640    6.483446
C       6.943775    5.247840    4.899756
H       6.758285    4.339560    4.976693
C       8.097163    5.639410    4.235851
H       8.679151    5.009669    3.877101
C       8.354057    6.989046    4.122607
H       9.121410    7.275659    3.680868
C       7.493272    7.913474    4.651656
H       7.680779    8.820408    4.575584
C       6.335996    7.490955    5.306052
C       5.326745    8.337338    5.909445
C       4.961194    9.685629    6.117780
H       5.426502   10.435128    5.822999
N       2.643376    6.130554    7.529442
C       1.784461    5.247840    8.067136
H       1.969950    4.339560    7.990199
C       0.631073    5.639410    8.731040
H       0.049085    5.009669    9.089791
C       0.374179    6.989046    8.844285
H      -0.393175    7.275659    9.286023
C       1.234964    7.913474    8.315235
H       1.047456    8.820408    8.391308
C       2.392239    7.490955    7.660840
C       3.401491    8.337338    7.057447
C       3.767041    9.685629    6.849112
H       3.301734   10.435128    7.143893
