27
4332639
Pt      4.868743   10.977605   11.904280
Cl      4.731699   10.645724    9.635672
Cl      5.697779   13.075904   11.511752
N       4.923176   11.099535   13.901075
N       5.358584   12.170972   14.584560
N       4.461469    9.882384   15.883399
N       4.171441    9.141268   12.375547
C       5.330093   12.098025   15.911443
C       4.850121   10.940199   16.583783
C       4.506763   10.004619   14.563168
C       4.096924    8.879054   13.700272
C       3.683433    7.654913   14.203628
H       3.635217    7.507945   15.140229
C       3.341536    6.647641   13.308373
H       3.060274    5.796298   13.619375
C       3.420435    6.921863   11.952907
H       3.200540    6.246166   11.321915
C       3.818585    8.169303   11.510673
H       3.843424    8.346741   10.577667
C       5.855358   13.273774   16.653893
H       6.151962   13.956640   16.015709
H       6.612208   12.995967   17.211180
H       5.148186   13.642988   17.221966
C       4.703281   10.879261   18.072278
H       3.861687   11.307621   18.334742
H       5.453556   11.347051   18.492940
H       4.696706    9.943680   18.361708
