24
4332312
Pt      0.973581    1.097542    6.378540
Cl      0.657463    3.335255    6.838083
Cl      0.244396    1.411171    4.222334
N       1.302309   -0.861025    6.177515
H       1.164195   -1.266151    5.408691
N       1.601158    0.628315    8.202576
N       1.902840   -0.700244    8.329143
C       1.720400   -1.512611    7.196778
C       1.960445   -2.954352    7.336809
H       1.271262   -3.336207    7.935979
H       2.841302   -3.091862    7.766326
C       1.935710   -3.712773    6.010555
H       1.094933   -3.524490    5.543337
H       2.005228   -4.675343    6.184247
H       2.690223   -3.425059    5.455817
C       2.319909   -0.957282    9.605578
H       2.595312   -1.800325    9.946230
C       2.269478    0.216843   10.297653
H       2.488726    0.353295   11.211893
C       1.824296    1.183645    9.376681
H       1.702910    2.104962    9.573263
O       0.780049   -1.608868    3.449606
H       0.689491   -0.731977    3.166851
H       1.442003   -1.953701    2.853129
