29
4332555
Fe      0.717834    6.655038    3.518577
O       1.886734    4.930525    5.413633
O      -1.403015    5.197215    2.375914
N       1.471502    5.743606    4.653068
N      -0.546646    5.936144    2.766413
N       2.092572    7.613042    2.224936
N       0.372288    8.631671    4.169485
C       2.029381    9.032357    2.490566
H       2.939727    9.364094    2.526892
H       1.602875    9.453858    1.728866
C       1.409953    9.448655    3.574655
H       1.017139   10.312472    3.370324
H       2.084951    9.599562    4.254623
C       3.456331    7.112184    2.473539
H       4.063476    7.515473    1.849194
H       3.471823    6.158603    2.363427
H       3.721099    7.335944    3.368054
C       1.769125    7.350254    0.816188
H       2.414709    7.784765    0.254278
H       0.893441    7.691098    0.619804
H       1.788696    6.404478    0.654994
C       0.475291    8.730541    5.631585
H       0.313521    9.635989    5.902891
H       1.356075    8.465152    5.908567
H      -0.175261    8.152928    6.037977
C      -0.969056    9.089598    3.800554
H      -1.117621    9.967726    4.159268
H      -1.623513    8.484665    4.158133
H      -1.047264    9.116917    2.844740
