29
4333234
Pt     14.681088    3.521694    6.912617
Cl     15.805555    5.012837    5.576210
Cl     16.184887    1.863667    6.410332
O      10.571717    1.595533    6.746336
O      10.524584    4.011527    5.742853
N      13.724379    2.234445    8.112992
N      12.214383    0.912980    9.005077
N      13.380484    4.954183    7.456381
N      11.491680    6.060932    7.604911
C      12.439573    1.883567    8.070425
C      13.396195    0.661605    9.611876
H      13.537593    0.041896   10.289317
C      14.331869    1.464609    9.067568
H      15.232629    1.490794    9.299420
C      10.927832    0.308982    9.344703
H      11.015115   -0.192023   10.158900
H      10.653763   -0.277560    8.636469
H      10.271463    1.000263    9.461534
C      11.430582    2.346167    7.116755
C      12.066002    4.910542    7.231775
C      12.465758    6.872663    8.087633
H      12.354036    7.731528    8.429976
C      13.644079    6.183128    7.973519
H      14.485487    6.502584    8.210804
C      10.068967    6.389116    7.522495
H       9.946771    7.326535    7.691855
H       9.585419    5.879383    8.177294
H       9.742528    6.176145    6.645806
C      11.343299    3.793319    6.610485
