26
4333296
Fe     -3.423472    0.755387   -7.006820
C      -3.999174    1.155789   -8.918648
C      -5.039056    1.483743   -7.997067
C      -4.515197    2.466612   -7.093557
C      -3.182942    2.739907   -7.458977
C      -2.830287    1.939898   -8.575314
C      -3.285424   -1.256163   -6.655857
C      -4.081762   -0.624106   -5.670027
C      -3.255282    0.313047   -5.029539
C      -2.010438    0.291183   -5.605778
C      -2.024303   -0.685722   -6.599639
C      -4.041372    0.231555  -10.041008
C      -3.124468    0.219630  -11.006760
C      -3.121454   -0.681747  -12.137151
N      -3.066596   -1.363494  -13.032630
I      -5.634833   -1.129851  -10.107466
H      -5.941492    1.106099   -7.987028
H      -3.573576   -1.974681   -7.260205
H      -5.002283   -0.839761   -5.443146
H      -3.542832    0.898395   -4.298700
H      -1.244844    0.845724   -5.356810
H      -1.262929   -0.915290   -7.169854
H      -2.396249    0.860631  -10.944518
H      -1.957389    1.909090   -9.015022
H      -2.581318    3.360038   -6.999191
H      -4.996255    2.877051   -6.356695
