21
4334747
Fe     -0.586546    4.197454    4.077832
O      -3.165354    2.778624    4.239725
O       0.670090    2.262967    5.914190
O       1.939016    5.736247    3.957636
C       0.981637    5.126942    3.956064
C       0.185287    2.995556    5.189715
C      -2.174517    3.324510    4.176602
O      -1.741674    6.328365    5.733726
C      -0.980786    4.763610    2.093802
H      -0.442554    5.468342    1.812498
H      -1.854830    4.926606    2.365152
C      -0.472913    3.453128    2.108469
C      -1.280220    5.514574    5.083113
O       1.799415    3.937965    1.489024
C       2.372110    1.369160    1.121025
H       2.642609    1.848662    0.335260
H       2.344389    0.429122    0.929822
H       3.000714    1.533341    1.828213
C       0.911219    3.141363    1.685728
H      -1.058923    2.726466    1.998462
O       1.062257    1.815471    1.528837
