27
4334104
C      -0.380492    5.856600   37.129107
H      -0.336328    6.767070   36.981676
C      -0.217424    4.941115   36.053532
H      -0.080855    5.273448   35.195753
C      -0.407670    3.248093   37.457475
H      -0.406311    2.328845   37.604906
C      -0.577532    4.050711   38.559856
C      -0.686244    3.498911   39.953747
C      -0.699833    4.342914   42.285834
C      -0.733806    3.122684   42.899012
H      -0.772535    2.318812   42.429914
C      -0.713422    3.185389   44.302955
C      -0.597916    4.351692   45.053512
H      -0.557149    4.337897   45.981656
C      -0.557149    5.467832   44.393424
H      -0.458629    6.259163   44.872574
C      -0.638683    5.555619   43.009585
H      -0.658387    6.372031   42.573994
N      -0.591121    5.380046   38.365515
N      -0.244602    3.649402   36.231119
N      -0.720217    4.465814   40.858436
H      -0.765740    5.268432   40.553522
O      -0.720217    2.321321   40.134685
Hg      0.104839    2.138725   34.283022
Br      0.239846    0.033860   35.496311
Br      0.066586    3.851310   32.514858
F      -0.754189    2.009052   44.926186
