27
4334107
C       0.510476    0.000000    3.140191
H      -0.378318    0.000000    2.867997
C       1.499135    0.000000    2.200789
H       1.257900    0.000000    1.302881
C       3.067821    0.000000    3.835614
H       3.953995    0.000000    4.117767
C       2.075989    0.000000    4.776676
C       2.426021    0.000000    6.243868
C       1.312114    0.000000    8.486151
C       0.025857    0.000000    9.012282
H      -0.713576    0.000000    8.447977
C      -0.141309    0.000000   10.396489
C       0.950244    0.000000   11.239627
H       0.846572    0.000000   12.164091
C       2.241101    0.000000   10.638808
H       2.995351    0.000000   11.183197
C       2.399913    0.000000    9.281157
H       3.252916    0.000000    8.909380
N       0.799325    0.000000    4.444731
N       2.808896    0.000000    2.516136
N       1.344101    0.000000    7.085347
H       0.575730    0.000000    6.698632
O       3.610993    0.000000    6.612326
Br      3.016715   -0.000000   -1.202467
Br      6.563350    0.000000    2.025855
Hg      4.505585    0.000000    0.751853
I      -2.059843    0.000000   11.201122
