27
4334105
C       3.339800    0.485206    3.367651
H       3.339800   -0.420247    3.158438
C       3.339800    1.410545    2.338459
H       3.339800    1.118891    1.454366
C       3.339800    3.088881    3.873811
H       3.339800    3.994334    4.086398
C       3.339800    2.147634    4.899629
C       3.339800    2.611629    6.327000
C       3.339800    1.626634    8.618218
C       3.339800    2.834347    9.303221
H       3.339800    3.643024    8.844302
C       3.339800    2.805181   10.683350
C       3.339800    1.631937   11.418970
H       3.339800    1.641217   12.346930
C       3.339800    0.460018   10.717094
H       3.339800   -0.346008   11.182762
C       3.339800    0.436155    9.309970
H       3.339800   -0.373847    8.854426
N       3.339800    0.840494    4.629677
N       3.339800    2.722988    2.601662
N       3.339800    1.581560    7.224590
H       3.339800    0.792769    6.880402
O       3.339800    3.794153    6.590203
Cl      3.339800    4.331062   11.535724
Br      3.339800    2.787815   -1.129749
Br      3.339800    6.445951    2.017891
Hg      3.339800    4.367651    0.760826
