18
4334744
Fe     -0.201377    1.508734    7.916907
C      -0.731569   -0.079964    7.228589
O      -1.070266   -1.082437    6.821925
O      -1.805606    3.778318   10.022024
O       0.463403    3.361530    5.721420
O       2.566717    0.495995    8.053968
O      -3.058282    2.253051    7.825031
C      -0.587096    3.764810    9.879440
C       0.209169    2.542652    9.698701
H       1.085222    2.604246    9.391443
C       1.515502    0.894737    7.992717
C      -0.345990    1.275108    9.986880
H      -1.221232    1.209191   10.294138
H       0.164648    0.506801    9.869399
C      -1.955895    2.008835    7.901343
C       0.214166    2.642067    6.568889
O       0.152851    4.862592    9.908560
H      -0.335055    5.518624    9.968806
