17
4334494
Pt     -1.273694    5.816435    3.757453
Cl     -0.330416    3.721625    3.947837
Cl     -1.067556    5.759671    1.483344
N      -1.525140    6.111231    5.739242
N      -2.129472    7.597958    3.753004
H      -2.357959    7.970199    3.012778
C      -1.137975    5.289619    6.733858
H      -0.750070    4.469124    6.525358
C      -1.303222    5.639503    8.034740
H      -1.016270    5.063815    8.706131
C      -1.893897    6.841181    8.372929
H      -2.009957    7.078163    9.264791
C      -2.305201    7.676207    7.367340
H      -2.716857    8.486641    7.567859
C      -2.102908    7.301731    6.048501
C      -2.459558    8.089808    4.886287
H      -2.907052    8.942720    4.968091
