19
4335194
Ir      3.688229    0.648554    2.810468
Cl      4.478956   -0.663345    4.591260
O       6.239534    0.113102    1.252087
O       2.487999    2.315814    0.655698
N       1.844907    1.562858    5.127790
N       0.590612    1.520939    5.576729
N      -0.013255    0.873967    4.622562
N       0.750113    0.488789    3.601123
C       1.974106    0.946731    3.916890
C       2.861740    2.265195    5.914463
C      -1.453453    0.572626    4.685715
C       5.282957    0.317159    1.828706
C       2.960677    1.661723    1.469005
H       2.891403    3.206390    5.642628
H       3.736975    1.852335    5.759325
H       2.637123    2.206667    6.865884
H      -1.762895    0.647763    5.612424
H      -1.610723   -0.338514    4.360337
H      -1.945297    1.208526    4.124198
