24
4335190
Cr     22.574259    6.188136    4.201838
O      20.046416    5.425393    5.674968
O      21.722025    4.248638    2.010574
O      23.144003    8.229088    6.388478
O      24.025359    4.189292    5.981739
O      21.007462    8.312738    2.677850
N      24.928954    7.725491    2.795310
N      26.119010    7.551125    2.148028
N      26.327898    6.290721    2.081175
N      25.268100    5.681713    2.678475
C      24.356827    6.558627    3.162687
C      24.496616    9.090176    3.059597
C      25.318668    4.218965    2.785939
C      21.011434    5.738516    5.119529
C      22.078645    4.961926    2.837796
C      22.965031    7.477932    5.541263
C      23.496651    4.923209    5.276352
C      21.623538    7.524843    3.228915
H      25.169878    9.718683    2.720960
H      24.388862    9.218477    4.025522
H      23.642264    9.255216    2.610373
H      24.439165    3.843387    2.565388
H      25.561709    3.967732    3.701256
H      25.987958    3.868821    2.162398
