29
4336396
Pt      0.237590    5.556019    5.917217
Cl      0.282744    5.622702    3.608540
N       0.240601    5.435088    7.867312
N      -0.136437    3.206353    7.522692
N      -0.134429    3.508322    6.187179
C       0.575903    7.473827    6.322241
C       0.740192    8.567468    5.466556
H       0.696162    8.437270    4.526989
C       0.966789    9.850033    5.976594
H       1.066704   10.581430    5.377541
C       1.047112   10.070524    7.347156
H       1.212663   10.944746    7.681364
C       0.885090    9.009046    8.223517
H       0.935843    9.153181    9.161031
C       0.646589    7.725885    7.724038
C       0.466111    6.560534    8.587055
C       0.515693    6.464166    9.971108
H       0.674691    7.237731   10.499917
C       0.329937    5.226747   10.578080
H       0.362695    5.161470   11.524979
C       0.096780    4.086769    9.822115
H      -0.035202    3.238873   10.230087
C       0.065526    4.241268    8.448474
C      -0.353600    1.874830    7.723891
H      -0.393482    1.427058    8.561245
C      -0.503210    1.309129    6.484579
H      -0.670380    0.394287    6.291151
C      -0.360053    2.355002    5.561143
H      -0.416709    2.254942    4.617910
