23
4337884
Ru      2.501047    2.632809    5.460535
C       2.416102    4.708479    4.847468
C       2.036913    3.908882    3.750770
H       1.197408    3.897157    3.310019
C       3.161191    3.132733    3.444715
H       3.208367    2.497276    2.739353
C       4.182127    3.425840    4.323029
H       5.045829    3.024869    4.316653
C       3.755406    4.415371    5.230037
H       4.251882    4.802273    5.941774
C       1.242090    2.098650    7.131723
C       2.608613    1.800852    7.463283
H       3.126567    2.187754    8.159878
C       3.024314    0.816011    6.543524
H       3.882355    0.410351    6.509252
C       1.947407    0.529938    5.666803
H       1.960140   -0.107864    4.964630
C       0.836814    1.352984    6.018288
H      -0.009047    1.388157    5.584710
C      -0.462148    2.304997    9.125067
N      -0.939776    1.721127    9.918101
S       0.252876    3.310942    7.919975
I       1.248345    6.173078    5.715262
