23
4337883
Fe      1.971932    2.240900    0.735933
C       2.335819    2.240900   -1.232705
C       2.916025    3.407064   -0.641678
H       2.713614    4.311492   -0.851992
C       3.853213    2.949024    0.319329
H       4.392484    3.501182    0.872118
C       0.105151    1.533851    1.207995
H      -0.436980    0.977929    0.660797
C       1.045891    1.090870    2.158716
H       1.247809    0.186443    2.365900
C       1.640400    2.240900    2.753545
H       2.311159    2.240900    3.425858
C       1.822886    2.240900   -3.849618
N       2.358506    2.240900   -4.860604
S       0.985226    2.240900   -2.370037
C       2.916025    1.074736   -0.641678
H       2.713614    0.170308   -0.851992
C       3.853213    1.532776    0.319329
H       4.392484    0.980618    0.872118
C       0.105151    2.947949    1.207995
H      -0.436980    3.503871    0.660797
C       1.045891    3.390930    2.158716
H       1.247809    4.295357    2.365900
