23
4337885
Ru      1.949262    2.206825    0.730416
C       2.442062    2.206825   -1.347660
C       3.021683    3.371146   -0.748536
H       2.820739    4.275061   -0.958235
C       3.957790    2.912126    0.220939
H       4.494249    3.465598    0.776579
C      -0.038580    1.497287    1.278631
H      -0.571070    0.939225    0.724353
C       0.896712    1.058040    2.252761
H       1.100404    0.154478    2.463710
C       1.473992    2.206825    2.856086
H       2.130569    2.206825    3.542292
C       1.925961    2.206825   -3.980537
N       2.426793    2.206825   -5.005418
S       1.098877    2.206825   -2.489709
C       3.021683    1.042504   -0.748536
H       2.820739    0.138589   -0.958235
C       3.957790    1.501524    0.220939
H       4.494249    0.948052    0.776579
C      -0.038580    2.916363    1.278631
H      -0.571070    3.474425    0.724353
C       0.896712    3.355610    2.252761
H       1.100404    4.259172    2.463710
