25
4337887
Ru      4.456970    3.039095    7.026848
C       4.318523    0.918244    7.339487
C       5.057454    1.152195    6.137249
H       5.962611    0.911232    5.977748
C       4.187050    1.813841    5.223309
H       4.409901    2.089678    4.342202
C       2.924733    1.990832    5.860098
H       2.163666    2.409061    5.475127
C       2.994478    1.437889    7.168434
H       2.293721    1.417069    7.809884
C       6.158568    4.247180    7.630318
H       7.059662    3.956996    7.549453
C       5.407153    4.959982    6.646255
H       5.718771    5.231318    5.790278
C       4.116042    5.189509    7.175730
H       3.407109    5.642470    6.734720
C       4.059264    4.636196    8.461366
H       3.306571    4.651439    9.040090
C       5.311320    4.052144    8.750576
H       5.545304    3.605519    9.555885
C       4.560139   -1.504979    8.484065
F       5.022088   -2.241723    9.495489
F       5.081513   -1.991729    7.363301
F       3.258830   -1.723278    8.398538
S       4.982236    0.213358    8.793339
