26
4337839
Au      6.095401    7.475730    1.523248
Cl      5.975996    9.235394    0.074027
C       6.183479    6.008583    2.799660
N       7.307002    5.618773    3.512014
N       5.264978    5.093009    3.171006
C       7.003569    4.503516    4.259561
H       7.616176    4.013865    4.795950
C       5.707826    4.206114    4.113935
H       5.208392    3.534835    4.561734
C       8.545338    6.351657    3.507159
H       8.747080    6.640562    2.583648
H       9.276038    5.747294    3.800839
C       3.911829    5.162049    2.730488
H       3.639559    6.094617    2.638258
H       3.331206    4.715946    3.390659
H       3.822439    4.704262    1.867653
C       8.332114    7.403185    5.934260
H       9.116941    6.902913    6.270413
H       7.537447    6.837060    6.076245
C       8.512534    7.594372    4.441593
H       9.354767    8.091459    4.297181
H       7.775273    8.176431    4.121216
C       8.176297    8.656522    6.795880
H       8.428885    8.446217    7.718178
H       7.243855    8.950738    6.769182
H       8.756921    9.363914    6.448805
