26
4338088
Ru      2.539901    6.733593    4.267964
O       5.109014    8.200622    6.855305
C       2.021853    5.262373    2.754343
C       4.010998    5.154205    3.904388
C       2.986418    4.643111    4.756978
C       1.754062    4.705308    4.036975
C       1.553351    8.661553    3.902659
C       3.446055    8.456033    5.222760
C       2.968994    8.833269    3.914764
C       2.306064    8.055812    5.998680
C       1.154656    8.173445    5.191631
C       5.931524    8.650736    4.661285
H       6.787721    8.593948    5.092479
H       5.823864    9.522840    4.275054
H       5.876892    7.985503    3.970681
C       4.842011    8.412766    5.674131
C       3.411529    5.540906    2.669026
H       4.900866    5.246148    4.133244
H       3.056431    4.259115    5.655108
H       0.935956    4.448409    4.335006
H       3.457971    9.167238    3.228196
H       3.803661    5.922198    1.971506
H       0.301513    8.031474    5.447581
H       2.321343    7.882743    6.761918
H       1.474997    5.367837    2.104092
H       0.991616    8.923860    3.205138
