26
4339658
Au      7.522500    8.145000    0.000000
S       5.660005    7.846893    1.306001
C       4.406624    7.176288    0.309285
C       4.477402    7.069860   -1.093586
H       5.257330    7.358736   -1.552262
C       3.428377    6.550752   -1.797356
H       3.487690    6.481248   -2.742718
N       2.302086    6.134814   -1.165947
H       1.563143    5.712360   -1.622289
C       2.180044    6.227124    0.180903
H       1.381498    5.940420    0.608066
C       3.214602    6.737544    0.923187
H       3.126367    6.796188    1.867383
S       9.384995    8.443107   -1.306001
C      10.638376    9.113712   -0.309285
C      10.567598    9.220140    1.093586
H       9.787670    8.931264    1.552262
C      11.616623    9.739248    1.797356
H      11.557310    9.808752    2.742718
N      12.742914   10.155186    1.165947
H      13.481857   10.577640    1.622289
C      12.864956   10.062876   -0.180903
H      13.663502   10.349580   -0.608066
C      11.830398    9.552456   -0.923187
H      11.918633    9.493812   -1.867383
Cl      0.412145    4.531878   -2.917785
