19
4339652
Pd      7.177628   -0.691988    8.750120
N       7.506137    1.295615    8.437655
H       7.885054    1.637489    9.178948
H       8.101253    1.380645    7.768000
C       6.317830    2.113483    8.105423
H       6.589991    3.038296    8.000563
H       5.688982    2.071406    8.843601
C       5.623558    1.656774    6.840865
H       4.869707    2.260751    6.676826
O       6.506361    1.733915    5.709304
H       6.826849    2.513212    5.643792
C       5.090354    0.248954    6.859553
H       4.476901    0.150775    7.603961
H       4.595232    0.085907    6.042470
N       6.169930   -0.757382    6.983102
H       6.756791   -0.634658    6.312409
H       5.812113   -1.577003    6.885509
Cl      8.311514   -0.559709   10.757777
Cl      6.820193   -2.952038    9.008160
