25
4340824
Pt      5.318827    5.280310    2.875901
S       3.415664    6.430190    3.270819
S       6.424434    6.890574    3.995834
C       3.903136    7.802447    4.159127
C       5.236793    8.009488    4.484104
C       2.827969    8.771287    4.573257
H       2.814076    8.845970    5.550488
H       1.958400    8.448487    4.258058
H       3.012179    9.650566    4.180984
C       5.688576    9.209824    5.260022
H       5.389325   10.024651    4.805630
H       6.666569    9.210340    5.320991
H       5.305198    9.179232    6.161904
S       7.221990    4.130431    2.480982
S       4.213220    3.670046    1.755967
C       6.734518    2.758174    1.592674
C       5.400861    2.551133    1.267697
C       7.809685    1.789334    1.178544
H       7.823578    1.714650    0.201313
H       8.679254    2.112133    1.493743
H       7.625475    0.910055    1.570817
C       4.949077    1.350797    0.491779
H       5.248328    0.535970    0.946171
H       3.971085    1.350281    0.430810
H       5.332456    1.381389   -0.410103
