25
4341086
Zn      6.212965    6.140361   -1.100188
Cl      4.375259    6.991321   -2.124127
Cl      8.030471    6.547992   -2.280836
O       5.474928    4.119130    0.834168
N       5.421972    5.167965    2.797285
N       6.111936    6.315362    0.858360
H       6.328165    7.043388    1.262452
N       5.877575    4.179322   -0.546555
N       5.185260    1.963789   -0.509819
H       4.954380    2.006566    0.317181
H       5.087509    1.228805   -0.946167
C       5.530517    6.334021    3.646685
H       5.127974    6.148432    4.498773
H       5.077935    7.073941    3.234529
H       6.456643    6.554527    3.771228
C       5.131654    3.898057    3.444191
H       5.923113    3.572359    3.880539
H       4.844810    3.261225    2.785637
H       4.436136    4.021156    4.094681
C       5.689314    3.025670   -1.111029
C       5.700178    5.270914    1.502578
C       6.079526    2.911665   -2.540136
H       6.444981    3.747362   -2.839397
H       5.307063    2.693572   -3.066978
H       6.739116    2.220939   -2.637799
