29
4341458
Br      1.505030   -1.689287   -0.307866
C       3.388442   -3.585522    1.671515
C       4.683328   -1.493573    0.664669
C       4.214752   -1.623655    3.348655
C       2.299388    2.595719    2.242436
C       2.391927    3.978132    2.242436
H       3.137767    4.416862    1.849635
C       1.370870    4.701859    2.829295
H       1.419639    5.650272    2.845232
C       0.264991    4.056181    3.400216
H      -0.419453    4.580055    3.798642
C       0.145194    2.691507    3.399279
H      -0.613029    2.258690    3.772393
C       1.184539    1.974875    2.826482
C       3.133258    1.555066    1.757763
H       3.959341    1.685148    1.306838
C       0.731139   -0.525057    3.133036
C      -0.537736   -0.345308    3.879265
H      -0.882781   -1.220402    4.153007
H      -1.194183    0.099335    3.303656
H      -0.373179    0.204583    4.673305
N       2.603362    0.392610    2.022130
N       1.393621    0.599558    2.673674
N       1.305815   -1.640211    2.885543
H       0.947044   -2.389954    3.175222
O       3.549276   -4.712502    1.595580
O       5.596592   -1.390691   -0.031874
O       4.830137   -1.565709    4.280504
Re      3.129733   -1.694396    1.775471
