30
4341088
Zn      5.412639    5.416569   -1.124078
Cl      5.113084    3.540911   -2.258872
Cl      4.540623    7.161116   -2.283168
O       7.280436    6.329331    0.883136
O       6.542787    5.730769    5.567981
N       5.115813    5.575094    0.838470
H       4.372484    5.349230    1.208424
N       7.305363    5.845268   -0.473503
N       6.189316    6.322515    2.827012
N       9.487770    6.685221   -0.367620
H       9.389106    6.956755    0.442417
H      10.236165    6.805386   -0.773434
C       6.106692    6.036852    1.517904
C       8.484469    6.080928   -0.990929
C       8.702457    5.593356   -2.380564
H       9.139479    6.276464   -2.894276
H       7.857065    5.382195   -2.781816
H       9.252839    4.806581   -2.360618
C       5.042170    6.279249    3.736248
H       4.259470    5.961133    3.259244
H       4.853223    7.171613    4.065567
C       5.337203    5.355475    4.904780
H       4.599985    5.386637    5.533925
H       5.417650    4.443431    4.582251
C       7.648036    5.704412    4.657366
H       7.753431    4.805930    4.307464
H       8.460787    5.936177    5.133946
C       7.453385    6.665717    3.508249
H       7.415231    7.576906    3.839585
H       8.194977    6.596811    2.886850
