30
4342481
Cr      0.000000    3.298625    1.168508
O       0.000000    3.298625    4.202733
O       2.129743    5.478093    1.158477
N       0.000000    3.298625   -1.977073
C       0.000000    3.298625    3.049926
C       1.343094    4.656603    1.155425
C       0.000000    3.298625   -0.815543
C      -0.000000    3.298625   -3.375561
C       0.000000    4.529408   -4.030903
C       0.000000    5.814156   -3.255774
H       0.000000    6.491694   -3.852385
H      -0.769786    5.842525   -2.687947
C      -0.000000    4.505262   -5.421541
H      -0.000000    5.343773   -5.858532
C      -0.000000    3.298625   -6.101305
H      -0.000000    3.298625   -7.021516
C      -0.000000    2.067842   -4.030903
C      -0.000000    0.783094   -3.255774
H      -0.000000    0.105556   -3.852385
H       0.769786    0.754725   -2.687947
C      -0.000000    2.091988   -5.421541
H      -0.000000    1.253477   -5.858532
H       0.769787    5.842525   -2.687947
H      -0.769787    0.754725   -2.687947
O      -2.129743    1.119157    1.158477
C      -1.343094    1.940647    1.155425
O      -2.129743    5.478093    1.158477
C      -1.343094    4.656603    1.155425
O       2.129743    1.119157    1.158477
C       1.343094    1.940647    1.155425
