12
4343805
O      -0.892694    3.825148    3.316083
O      -1.453545    0.187772    1.297429
C      -0.569589    0.742296    1.649340
H       0.362104    0.975284    3.785941
O       2.997548    2.722380    4.232598
C       1.489695    2.361280    0.866242
O       1.819094    2.847352   -0.114081
Mn      0.903648    1.630288    2.430505
C       2.225620    2.299108    3.524909
C       1.822537    0.032656    2.333826
O       2.370588   -0.967120    2.293221
C      -0.203958    2.999328    2.944836
