26
4343523
Pt      1.393021    3.185745    1.556318
Cl     -0.244128    2.381202    0.156186
Cl      1.623738    5.072870    0.272786
N       2.855972    3.831956    2.812068
C       1.159421    0.667671    4.965564
H       1.169766    0.803590    5.886125
C       4.027199    4.282634    2.327675
H       4.142538    4.327940    1.406394
C       1.125926    0.329067    2.287369
H       1.108363    0.212224    1.364648
C       5.069664    4.683237    3.148912
H       5.884313    4.962228    2.797673
N       1.221535    1.580950    2.771042
C       3.629267    4.189637    5.000112
H       3.470204    4.151484    5.915635
C       1.378759    3.178592    4.571860
H       0.636034    3.703191    4.232137
H       1.341252    3.202437    5.540645
C       1.051099   -0.791667    3.082694
H       0.988212   -1.642948    2.712742
C       2.660294    3.791419    4.115537
C       1.229760    1.757406    4.109779
C       4.844464    4.649853    4.524356
H       5.504216    4.931229    5.115272
C       1.074356   -0.603289    4.466776
H       1.031689   -1.332958    5.042577
