13
4343768
F       0.000000   -1.064158    1.316243
O       2.485293    1.569975    0.951859
O       0.000000    4.820680    2.201174
Co      0.000000    1.897672    2.431703
O       0.000000    1.871410    5.337476
C       1.521440    1.692148    1.524462
Si      0.000000   -0.320846    2.621331
C       0.000000    3.696007    2.329452
C       0.000000    1.890821    4.223875
F       1.195770   -0.889462    3.383562
F      -1.195770   -0.889462    3.383562
O      -2.485293    1.569975    0.951859
C      -1.521440    1.692148    1.524462
