17
4343637
C      -0.122630    1.389465   -1.405164
Cl      1.203880    1.461044    3.409719
Ru      0.000000    0.000000    0.000000
Cl     -2.100023    1.683599    2.808068
C      -1.967579   -0.174435   -0.055236
O      -0.203499    2.166402   -2.201060
Ge     -0.203472    1.701343    1.789052
O      -3.075791   -0.277693   -0.099592
Cl      0.078831    3.749952    1.220961
C       0.122630   -1.389465    1.405164
Cl     -1.203880   -1.461044   -3.409719
Cl      2.100023   -1.683599   -2.808068
C       1.967579    0.174435    0.055236
O       0.203499   -2.166402    2.201060
Ge      0.203472   -1.701343   -1.789052
O       3.075791    0.277693    0.099592
Cl     -0.078831   -3.749952   -1.220961
