26
4344708
Fe      9.586563    1.318221    9.441656
O       8.533602    2.361260   11.991429
O      10.231105   -1.213019   10.732428
O      11.178441    0.538313    7.088499
O      12.100568    2.345877   10.588306
O       7.459865   -0.616936    8.857576
N       8.942777    2.900598    8.468638
C       8.863251    1.947035   10.989561
C      10.015949   -0.203651   10.240001
C      10.552005    0.823493    7.993735
C      11.104283    2.564740    9.939187
C      10.853037    3.986880    9.419333
H      10.725535    4.597748   10.187559
H      11.647066    4.294365    8.913955
C       9.649497    4.051231    8.534287
C       9.237368    5.168194    7.829043
H       9.733441    5.977072    7.871454
C       8.086957    5.084870    7.059548
H       7.787382    5.840336    6.567376
C       7.377815    3.900651    7.010153
H       6.593204    3.836299    6.478490
C       7.815786    2.810608    7.736983
C       7.119666    1.492644    7.827773
H       7.015414    1.114398    6.919109
H       6.215484    1.625449    8.209220
C       7.900590    0.501394    8.705201
