25
4344426
Au      0.837439    3.011163    2.325053
C       0.358623    3.664695    4.238760
C       2.648983    3.788300    2.528612
C      -2.025030    2.150724    2.775940
H      -1.902711    2.468350    3.641591
C      -3.247972    1.665294    2.419592
H      -3.942843    1.633082    3.037914
C      -3.436359    1.226309    1.135760
H      -4.268250    0.909432    0.867278
C      -2.381412    1.257772    0.245702
H      -2.503272    0.958124   -0.626458
C      -1.139447    1.736460    0.645984
C       0.064382    1.828602   -0.175734
C       1.193272    2.383700    0.414927
C       2.357380    2.511050   -0.309161
H       3.104617    2.903589    0.079731
C       2.416431    2.050341   -1.628790
H       3.199501    2.141734   -2.120194
C       1.306116    1.460035   -2.195043
H       1.350269    1.138662   -3.067203
C       0.125135    1.340925   -1.477464
H      -0.619138    0.938647   -1.863102
N       0.073035    4.044499    5.239465
N       3.675892    4.238521    2.689701
N      -0.997806    2.186681    1.926561
