29
4344703
I      10.391963    4.252991    5.955632
Fe      8.899750    2.236420    6.840197
O       7.553033    0.116690    8.312892
O       8.403463    3.932806    9.166794
O      10.818199    1.613252    8.836825
O       7.537483    1.419864    3.940195
O       7.240804    2.970388    5.684408
N       9.442203    1.084860    5.251906
C       8.035349    0.916262    7.662588
C       8.588128    3.288410    8.237788
C      10.470008    1.540800    7.673527
C      11.358100    0.801216    6.668600
H      12.133206    1.372339    6.437736
H      11.705561   -0.026022    7.089183
C      10.626730    0.446490    5.426932
C      11.109046   -0.468403    4.501354
H      11.936393   -0.912154    4.648297
C      10.365527   -0.725888    3.360750
H      10.685045   -1.342208    2.713547
C       9.166420   -0.084915    3.170214
H       8.640369   -0.256115    2.396804
C       8.736346    0.822719    4.135956
C       7.446122    2.806310    4.296940
H       8.279543    3.267866    4.031136
H       6.695314    3.222669    3.802558
C       5.903199    2.595392    6.094869
H       5.247153    3.077491    5.549547
H       5.774420    2.824115    7.038570
H       5.781709    1.631194    5.974049
