28
4345424
V       2.420251    3.690416   10.906412
O       1.550653    3.092591   12.083237
N       4.021198    2.378379   10.740637
C       3.953481    1.389134    9.852636
C       5.049133    0.597214    9.593290
H       5.003481   -0.108267    8.959501
C       6.224677    0.861769   10.288687
H       6.997721    0.330912   10.135332
C       6.268047    1.904275   11.210141
H       7.066200    2.099854   11.685442
C       5.125981    2.645554   11.416160
C       2.607501    1.387388    9.192845
O       2.285653    0.530857    8.378707
O       1.862610    2.389729    9.547251
C       4.931959    3.847840   12.302836
O       5.739242    4.203200   13.133701
O       3.785328    4.453785   12.056408
O       1.441088    5.040522   10.358409
C       0.108804    5.450015   10.658494
H      -0.488479    5.180221    9.929976
H       0.081413    6.424417   10.758026
H      -0.182609    5.028298   11.493334
O       3.729024    4.631902    9.219509
H       4.306524    4.287019    8.976062
C       4.050872    6.026274    9.276313
H       3.224567    6.551892    9.289065
H       4.581959    6.270748    8.489169
H       4.567503    6.209629   10.088961
