29
4345485
Mo      0.612196    3.541579    1.387951
H       0.425991    3.183824    3.008237
O       3.355573    4.799675    0.609376
O       0.727195    5.941599    3.361021
P       2.138736    1.866547    2.205644
C       2.329703    4.326112    0.883922
C       0.690559    5.046361    2.618950
C      -1.625602    2.855720    1.020185
H      -2.307511    2.677086    1.728845
C      -1.428964    4.086718    0.349574
H      -1.955866    4.925206    0.488690
C      -0.461368    3.860690   -0.677745
H      -0.192003    4.507177   -1.391161
C      -0.097528    2.515464   -0.602836
H       0.492970    2.036675   -1.252045
C      -0.809199    1.920016    0.438394
H      -0.800305    0.944210    0.658721
C       3.337197    2.412050    3.457570
H       3.928441    1.666039    3.690738
H       2.858518    2.712326    4.259093
H       3.870249    3.152229    3.098603
C       1.396399    0.399679    3.003481
H       2.108802   -0.199293    3.311439
H       0.829709   -0.071697    2.357840
H       0.854081    0.682942    3.768025
C       3.211791    1.102186    0.942898
H       3.791184    0.435042    1.366191
H       3.764433    1.793635    0.521983
H       2.656969    0.668360    0.261586
