25
4347152
Ir      4.729686    6.265452    2.806545
N       3.125208    5.470800    3.884977
C       1.811212    5.799048    3.721054
H       1.568248    6.496393    3.123645
C       0.851884    5.135258    4.407710
H      -0.060554    5.316159    4.218287
C       1.170023    4.186986    5.389427
H       0.494483    3.765369    5.908517
C       2.504419    3.892292    5.568832
H       2.761508    3.253302    6.222702
C       3.487025    4.526905    4.794750
C       4.983503    4.245341    4.940460
O       5.704695    4.980616    3.949636
C       5.450252    4.639238    6.322878
H       6.400198    4.417489    6.422142
H       4.929252    4.153431    6.994052
H       5.325462    5.603558    6.447641
C       5.229122    2.742694    4.644487
H       4.938952    2.538451    3.731072
H       4.719795    2.198532    5.280145
H       6.184501    2.544287    4.736466
C       6.261734    6.796922    1.935203
O       7.265538    7.109122    1.407006
C       3.743766    7.430076    1.760352
O       3.094865    8.108455    1.085535
