27
4348384
Co      2.084109    6.314490    2.015096
C       1.697358    4.314360    2.330466
H       2.362858    3.648931    2.456998
C       2.860877    7.978363    2.766968
C       3.853417    6.945931    2.650144
C       2.152892    8.284325    1.564133
C       1.065994    5.059670    3.346851
H       1.213354    4.969238    4.281336
C       1.163685    4.734869    1.084337
H       1.398453    4.388966    0.230971
C       0.234776    5.744693    1.330930
H      -0.272969    6.207403    0.675061
C       3.991692    6.379224    1.341753
C       2.474326    8.587272    4.080157
H       2.510347    7.903003    4.780100
H       1.563967    8.945232    4.019123
H       3.096830    9.312235    4.300305
C       4.599306    6.383746    3.826200
H       5.452423    6.854746    3.927627
H       4.768326    5.429688    3.679918
H       4.063137    6.499800    4.638393
C       0.180537    5.959469    2.735391
H      -0.360104    6.600782    3.181155
H       4.024869    6.963264    0.538933
H       4.482586    5.538960    1.314416
H       2.628686    8.402640    0.767673
H       1.318491    8.817120    1.651389
