30
4349691
C       0.912636    1.857477    9.086653
H       1.268511    1.661491    9.979822
H       1.649908    1.901354    8.444248
H       0.287104    1.152513    8.821802
C      -2.154663    3.810021    8.789400
H      -2.472643    2.961725    8.421707
H      -2.344058    4.533998    8.152630
H      -2.615232    3.995037    9.634670
C       0.791878    5.623620    9.128916
H       0.126998    6.292019    8.855612
H       1.543079    5.641171    8.490738
H       1.122763    5.837157   10.023494
C      -0.365220    3.568695   12.243737
C      -1.472332    4.212230   12.857966
H      -2.132564    4.642229   12.324037
C      -1.593699    4.219543   14.258297
H      -2.385064    4.547161   14.666844
C      -0.581227    3.751518   15.026084
C       0.515545    3.056792   14.399175
H       1.141677    2.573410   14.926060
C       0.639448    3.093357   13.024203
H       1.440704    2.775246   12.618473
C      -1.739867    3.875837   17.060367
H      -1.558651    3.826841   18.022566
H      -2.133542    4.746803   16.846232
H      -2.366940    3.164292   16.811012
N      -0.250057    3.597947   10.853267
O      -0.602398    3.722266   16.384151
W      -0.089105    3.701790    9.126944
Cl      0.224090    3.709103    6.731026
