30
4349699
W       2.680604    1.451619    7.407151
Cl      2.622089    1.964410    9.684630
Cl      2.787180    0.479777    5.307686
Cl      0.424768    0.869733    7.529772
Cl      5.004367    1.573730    7.474279
F       3.973663    3.995029    4.787767
F       0.699814    4.807967    8.030696
O       3.023474   -0.650195    8.108167
N       2.452970    3.066686    6.855011
C       2.357556    4.374079    6.436331
C       3.147514    4.869899    5.393113
C       3.095709    6.176161    4.996312
H       3.649106    6.489706    4.290225
C       2.224430    7.031870    5.640740
H       2.185288    7.942737    5.374217
C       1.407897    6.589154    6.667053
H       0.808285    7.186215    7.098661
C       1.479983    5.274043    7.047942
C       2.340498   -1.283834    9.236812
H       1.365012   -1.321579    9.073716
H       2.502215   -0.772587   10.069199
C       2.897518   -2.649246    9.354162
H       3.394067   -2.741523   10.205444
H       2.165164   -3.315672    9.345211
C       3.789539   -2.872199    8.229395
H       3.368232   -3.484913    7.575021
H       4.636631   -3.280145    8.540670
C       4.053993   -1.563251    7.604856
H       4.955098   -1.237801    7.851489
H       4.002285   -1.633628    6.618323
