26
4349692
W       1.686165    1.195882    1.944939
Cl      1.979172    1.045495   -0.456598
F       3.251600    1.063793    5.658177
F      -1.235188    1.596274    4.440819
N       1.371021    1.282555    3.667425
C       1.020287    1.287887    4.985147
C       1.948082    1.159160    6.030115
C       1.608736    1.098727    7.344295
H       2.273807    0.984413    8.012602
C       0.268975    1.207735    7.685533
H       0.012137    1.155225    8.598257
C      -0.699253    1.391622    6.713772
H      -1.613721    1.492823    6.949923
C      -0.300743    1.425348    5.393688
C       1.569460   -0.906530    1.893931
H       1.522846   -1.253399    2.809016
H       2.364689   -1.266773    1.447605
H       0.767798   -1.177636    1.400375
C       3.590446    2.078281    2.036802
H       3.581547    2.926539    1.545608
H       4.249699    1.474668    1.635345
H       3.827913    2.245409    2.973141
C      -0.006747    2.352703    1.486570
H      -0.681717    1.787732    1.055595
H       0.247662    3.078319    0.879662
H      -0.376523    2.732042    2.311918
