29
4350350
Re      1.953293    0.781780    3.246520
Br     -0.194312    2.201961    2.630863
C       3.555429   -0.234950    3.645927
O       4.466738   -0.803158    3.864950
C       1.108548   -0.854832    2.636889
O       0.609188   -1.806173    2.298311
C       1.304601    0.392284    4.989717
O       0.952005    0.166452    6.053272
N       2.746296    1.625208    1.402132
N       3.571844    2.737767    1.581942
N       2.922859    2.616959    3.731050
H       2.857105    2.924492    4.531585
C       3.596821    3.271779    2.871215
C       4.363923    4.504170    3.160058
H       4.273420    4.726525    4.089712
H       4.024316    5.224760    2.624455
H       5.290102    4.359629    2.954425
C       2.736958    1.390243    0.110946
C       3.530764    2.295333   -0.569078
H       3.684370    2.314677   -1.485342
C       4.048340    3.154350    0.358663
C       1.898851    0.300579   -0.477261
H       2.067184   -0.520758   -0.008608
H       2.120682    0.191617   -1.405002
H       0.970654    0.531948   -0.395007
C       5.043513    4.249753    0.166420
H       5.279828    4.307195   -0.762278
H       5.828597    4.064069    0.685763
H       4.661406    5.082902    0.451437
