28
4500213
C       4.016661    0.582257    9.639125
C       3.319927    0.994060   10.809595
H       2.619472    1.634029   10.853245
C       3.870182    0.267484   11.901116
H       3.593245    0.332631   12.806721
C       4.902465   -0.571757   11.407224
H       5.438454   -1.158842   11.928330
C       4.998705   -0.384748    9.996410
H       5.602817   -0.821613    9.406325
C       6.147902    3.028931   10.113349
H       5.943948    3.373058    9.252741
C       5.500167    3.382256   11.327198
H       4.785136    4.000765   11.421774
C       6.113583    2.644950   12.374262
H       5.880890    2.684038   13.294416
C       7.132427    1.840965   11.808966
H       7.703356    1.247748   12.283998
C       7.151551    2.074726   10.412702
H       7.735402    1.663920    9.786242
C       4.569500    0.951140    7.247262
H       5.411577    0.511975    7.256154
C       2.867567    2.030273    6.609755
H       2.264902    2.520788    6.062513
C       2.649450    1.734431    7.909019
H       1.884490    1.956696    8.425545
Fe      5.315543    1.379651   10.989988
N       3.760193    1.047480    8.327198
N       4.063696    1.532094    6.184032
