29
4500226
Pd      8.849090    1.844789    1.689007
Br      7.199436    3.600644    1.523832
S      10.726079    3.060792    0.865196
N      10.091244    0.310635    1.764116
C      11.893154    1.734301    1.068412
C       7.616675    0.403915    2.273465
N       9.672442   -0.850396    2.057312
C      12.350378   -0.602251    1.427457
H      12.050685   -1.457175    1.636779
C       8.306447   -0.818699    2.350507
C       7.665197   -2.015955    2.663036
H       8.143298   -2.812012    2.705191
C      13.241062    1.935353    0.764605
H      13.541164    2.783937    0.529118
C      11.470432    0.460065    1.420189
C       5.628028   -0.806925    2.859275
H       4.716866   -0.803303    3.048246
C       6.311248   -1.996936    2.907244
H       5.861401   -2.786654    3.103483
C      11.304626    4.268281    2.085948
H      11.418865    3.836291    2.934863
H      10.660098    4.973775    2.168804
H      12.145673    4.635066    1.799584
C       6.249011    0.383991    2.540932
H       5.756069    1.171898    2.506045
C      14.116301    0.894772    0.809668
H      15.016101    1.041486    0.630872
C      13.676281   -0.386708    1.122196
H      14.275057   -1.097636    1.125104
