29
4500225
Pd     20.329114    1.820563   12.906663
S      18.445679    3.027235   13.754957
Cl     21.897393    3.501192   13.007082
N      19.094480    0.274345   12.863187
N      19.526303   -0.888058   12.572908
C      21.567842    0.387468   12.325519
C      17.282980    1.682589   13.581493
C      17.716448    0.414189   13.215533
C      20.897885   -0.846193   12.272821
C      16.842527   -0.660922   13.219924
H      17.143878   -1.514241   13.009132
C      21.542741   -2.044225   11.982981
H      21.072829   -2.847664   11.965415
C      15.517159   -0.447146   13.541969
H      14.922954   -1.162403   13.547824
C      15.938617    1.872314   13.891826
H      15.632561    2.718508   14.126040
C      15.067590    0.823035   13.856694
H      14.168630    0.961988   14.045529
C      17.843855    4.227405   12.553878
H      17.780738    3.812324   11.690213
H      18.452892    4.967601   12.508499
H      16.978233    4.541832   12.823224
C      22.933391    0.391030   12.054709
H      23.413987    1.186452   12.079594
C      22.899548   -2.009487   11.719490
H      23.357650   -2.796001   11.527727
C      23.571288   -0.804329   11.742912
H      24.479120   -0.790968   11.545293
