29
4500227
I       9.920225   10.119716    2.258867
Pd      8.592077    7.925834    1.947961
S       9.984115    6.518229    3.255604
N       6.597867    6.282589    0.795086
N       7.654743    6.245626    1.488730
C       6.203268    7.597093    0.430443
C       7.067235    8.649389    0.854032
C       6.722973    9.924619    0.485277
H       7.261396   10.638471    0.737511
C       5.572331   10.159104   -0.265943
H       5.358844   11.023119   -0.534627
C       4.751162    9.105653   -0.611394
H       3.966386    9.295090   -1.073366
C       5.021571    7.808476   -0.316664
H       4.468879    7.110796   -0.585348
C       8.158505    4.985412    1.797169
C       9.315255    4.983101    2.634751
C       9.904936    3.771402    3.003506
H      10.655084    3.761006    3.553213
C       9.358609    2.594355    2.544276
H       9.739262    1.784630    2.796510
C       8.226196    2.598975    1.692985
H       7.868982    1.805421    1.366726
C       7.677487    3.803744    1.368096
H       6.927758    3.809520    0.817020
C      11.663599    6.554037    2.530567
H      12.159391    5.789361    2.833523
H      12.112946    7.356832    2.804735
H      11.599383    6.534401    1.573722
