27
4501008
Zn      5.180172    3.883707    2.305350
Cl      3.502475    5.135881    1.420741
N       5.863130    2.779270    0.762610
N       7.058587    2.053189    0.869578
C       7.251038    1.490937   -0.284019
N       6.241503    1.796298   -1.144376
C       5.392813    2.629013   -0.474902
N       6.131509    1.325170   -2.465802
N       4.285523    3.141825   -1.008821
H       8.050666    0.979094   -0.507177
H       5.331417    0.891848   -2.591213
H       6.111545    2.103598   -2.969291
H       3.936402    3.761272   -0.507177
H       4.126358    2.985752   -1.908830
Cl      6.857868    5.135881    3.189959
N       4.497213    2.779270    3.848090
N       3.301756    2.053189    3.741122
C       3.109305    1.490937    4.894719
N       4.118840    1.796298    5.755076
C       4.967530    2.629013    5.085602
N       4.228834    1.325170    7.076502
N       6.074820    3.141825    5.619521
H       2.309677    0.979094    5.117877
H       5.028926    0.891848    7.201913
H       4.248798    2.103598    7.579991
H       6.423941    3.761272    5.117877
H       6.233985    2.985752    6.519530
