27
4505843
Co      4.015850    3.166500    3.449951
N       2.689785    1.721309    3.746571
H       3.068228    0.944884    3.418828
H       2.017343    1.851769    3.358698
N       4.209683    3.166500    5.410391
H       4.963749    3.166500    5.566333
N       3.312342    3.166500    0.510776
N       6.243349    1.165272    3.060030
C       2.389714    1.538919    5.181104
H       2.083299    0.667498    5.366120
H       1.625402    2.126621    5.418982
C       3.633486    1.902433    5.946937
H       3.465186    2.039226    6.864748
H       4.385534    1.202003    5.846500
C       3.624963    3.166500    1.610298
C       5.378822    1.893567    3.212668
N       2.689785    4.611691    3.746571
H       3.068228    5.388116    3.418828
H       2.017343    4.481231    3.358698
C       2.389714    4.794081    5.181104
H       2.083299    5.665502    5.366120
H       1.625402    4.206379    5.418982
C       3.633486    4.430567    5.946937
H       3.465186    4.293774    6.864748
H       4.385534    5.130997    5.846500
N       6.243349    5.167728    3.060030
C       5.378822    4.439433    3.212668
