27
4505846
Co      0.857698    2.301437    0.226426
Cl     -1.193713    2.380919   -0.696026
Cl      1.811400    2.395081   -1.840885
Cl      2.919071    2.271167    1.183043
N       0.836867    4.223697    0.350358
H       1.634789    4.551184    0.093786
H       0.208311    4.554725   -0.201640
N       0.058871    2.324273    2.034486
H       0.757165    2.219831    2.608591
N       0.878529    0.338108    0.090437
H       0.921097    0.129225   -0.784453
H       1.643846    0.049566    0.465581
C       0.544326    4.652086    1.765186
H       0.168460    5.546037    1.780594
H       1.354927    4.646775    2.298427
C      -0.469153    3.628910    2.307805
H      -0.589611    3.749284    3.262413
H      -1.327756    3.742203    1.871701
C      -0.882152    1.237370    2.360728
H      -1.690036    1.368365    1.839545
H      -1.125785    1.317029    3.296578
C      -0.398508   -0.145156    2.124253
H      -1.028875   -0.771807    2.513465
H       0.452850   -0.263760    2.573756
C      -0.232765   -0.456712    0.682628
H      -1.057858   -0.260219    0.212358
H      -0.046191   -1.403769    0.576114
