30
4505844
Co      0.672280   10.910090    6.597162
N       0.256910   12.503797    7.679186
H       0.674082   13.112477    7.414315
H      -0.643646   12.737190    7.696844
N       2.117372   10.624713    7.918090
H       1.998808    9.916576    8.248399
N       2.075078   11.842073    5.543598
H       2.140572   11.495961    4.850778
H       1.866687   12.654972    5.351436
N       1.291447    8.297408    5.206017
N      -1.431765   11.676310    4.549552
N      -1.359107    9.295961    8.132064
C       0.680339   12.233272    9.067942
H       0.006330   11.584810    9.450187
H       0.681426   12.994454    9.599762
C       2.054791   11.640506    9.014968
H       2.256357   11.180349    9.851130
H       2.690458   12.290295    8.789568
C       3.413754   10.664496    7.189954
H       3.456768    9.860880    6.673714
H       4.207264   10.801084    7.847457
C       3.373533   11.850030    6.249921
H       3.496675   12.676190    6.740192
H       4.052475   11.860638    5.598649
C       1.061909    9.286678    5.714985
C      -0.643002   11.356720    5.323391
C      -0.595541    9.925859    7.569083
O       1.819987    6.684870    2.911505
H       1.595031    7.110548    3.603286
H       1.714531    5.938276    3.073544
