25
4508641
Pt      3.099400    7.069500    0.000000
Br      6.973936    1.762709    0.942687
Cl      2.367324    6.894601    2.159407
N       4.248331    5.444929    0.282366
C       5.444890    5.575008    0.855585
H       5.734655    6.438901    1.122521
C       3.832708    4.216250   -0.087950
H       2.981522    4.131416   -0.501470
C       6.289317    4.477821    1.077003
H       7.139817    4.588106    1.485894
C       5.844323    3.237831    0.682771
C       4.579169    3.087958    0.102608
H       4.251696    2.232548   -0.149670
Br     -0.775136   12.376291   -0.942687
Cl      3.831476    7.244399   -2.159407
N       1.950469    8.694071   -0.282366
C       0.753910    8.563992   -0.855585
H       0.464145    7.700099   -1.122521
C       2.366092    9.922750    0.087950
H       3.217278   10.007584    0.501470
C      -0.090517    9.661179   -1.077003
H      -0.941017    9.550895   -1.485894
C       0.354477   10.901169   -0.682771
C       1.619631   11.051042   -0.102608
H       1.947104   11.906452    0.149670
