25
4508642
Pd      0.000000    0.000000    0.000000
Cl     -1.090064   -1.617273   -1.241199
Cl      0.661943    4.031711   -5.054689
N       0.083633    1.214084   -1.612253
C      -0.381454    2.479671   -1.552623
H      -0.823050    2.764239   -0.761685
C      -0.245299    3.370654   -2.583205
H      -0.580767    4.256360   -2.510074
C       0.398187    2.941387   -3.738672
C       0.847683    1.621913   -3.833179
H       1.262885    1.304740   -4.626367
C       0.674776    0.798186   -2.754219
H       0.981092   -0.098600   -2.810473
Cl      1.090064    1.617273    1.241199
Cl     -0.661943   -4.031711    5.054689
N      -0.083633   -1.214084    1.612253
C       0.381454   -2.479671    1.552623
H       0.823050   -2.764239    0.761685
C       0.245299   -3.370654    2.583205
H       0.580767   -4.256360    2.510074
C      -0.398187   -2.941387    3.738672
C      -0.847683   -1.621913    3.833179
H      -1.262885   -1.304740    4.626367
C      -0.674776   -0.798186    2.754219
H      -0.981092    0.098600    2.810473
