30
4512279
Se      3.252667    5.672933   13.822275
Zn      0.312664    8.612936   13.822275
Cl     -0.234118    9.696504   11.948712
N       2.287631    9.068410   14.164146
C       2.710705   10.290324   13.765880
H       2.124293   10.826753   13.245425
C       3.948685   10.788373   14.081581
H       4.214668   11.648801   13.778044
C       4.804650   10.018986   14.846966
H       5.661508   10.347448   15.092081
C       4.392288    8.764047   15.247997
H       4.968882    8.215122   15.766608
C       3.124853    8.303486   14.888617
C       2.686606    6.922695   15.228645
H       1.701219    6.898596   15.318767
H       3.082902    6.651357   16.094657
N      -0.142810    6.637969   13.480404
C      -1.364724    6.214895   13.878670
H      -1.901153    6.801307   14.399125
C      -1.862773    4.976915   13.562969
H      -2.723201    4.710932   13.866506
C      -1.093386    4.120950   12.797584
H      -1.421848    3.264092   12.552469
C       0.161553    4.533312   12.396553
H       0.710478    3.956718   11.877942
C       0.622114    5.800747   12.755933
C       2.002905    6.238994   12.415905
H       2.027004    7.224381   12.325783
H       2.274243    5.842698   11.549893
Cl     -0.770904    9.159718   15.695838
