27
4512981
C       3.381650    0.625965    3.667805
H       3.381650   -0.292030    3.522370
C       3.381650    1.471934    2.585909
H       3.381650    1.124903    1.723939
C       3.381650    3.252922    3.997694
H       3.381650    4.170917    4.150224
C       3.381650    2.387310    5.061854
C       3.381650    2.932082    6.480734
C       3.381650    2.079565    8.807698
C       3.381650    3.301376    9.432005
H       3.381650    4.081867    8.928302
C       3.381650    3.365544   10.783488
C       3.381650    2.213140   11.585155
C       3.381650    1.009663   10.999867
H       3.381650    0.238338   11.521306
C       3.381650    0.910137    9.570346
H       3.381650    0.078573    9.155323
N       3.381650    1.077760    4.912872
N       3.381650    2.805056    2.781005
N       3.381650    1.945991    7.420742
H       3.381650    1.140618    7.122778
O       3.381650    4.125082    6.690019
Hg      3.381650    4.335003    0.736328
Br      3.381650    6.410771    1.981821
Br      3.381650    2.603123   -0.997827
Cl      3.381650    4.944861   11.552166
Cl      3.381650    2.333618   13.307676
