27
4512856
Ni      0.000000    0.000000    0.000000
S       1.592387   -1.465455    0.164426
N       0.961639    1.083649    1.105037
H       0.630497    1.865499    1.335555
C       2.647391   -0.571239    1.163069
C       2.163090    0.714785    1.577357
C       2.976803    1.516049    2.419636
H       2.667635    2.368496    2.702544
C       4.193284    1.074824    2.825864
H       4.731868    1.622531    3.385233
C       4.664344   -0.194139    2.421248
H       5.513516   -0.495937    2.721083
C       3.912248   -0.994227    1.603150
H       4.248534   -1.840791    1.332331
S      -1.592387    1.465455   -0.164426
N      -0.961639   -1.083649   -1.105037
H      -0.630497   -1.865499   -1.335555
C      -2.647391    0.571239   -1.163069
C      -2.163090   -0.714785   -1.577357
C      -2.976803   -1.516049   -2.419636
H      -2.667635   -2.368496   -2.702544
C      -4.193284   -1.074824   -2.825864
H      -4.731868   -1.622531   -3.385233
C      -4.664344    0.194139   -2.421248
H      -5.513516    0.495937   -2.721083
C      -3.912248    0.994227   -1.603150
H      -4.248534    1.840791   -1.332331
