24
4512496
Pt      1.690494    6.411074    0.500143
Cl      1.929529    8.715018    0.336440
Cl      2.209961    6.085214   -1.744175
S       1.138917    6.723763    2.663332
S       1.574890    4.182231    0.781021
O       3.844257    5.211103    2.912681
C       3.923937    6.627385    2.926232
C       2.667960    7.211223    3.517983
C       0.882461    5.034179    3.345427
C       0.562851    4.037474    2.266723
C       3.229580    3.556220    1.281977
C       4.259385    4.560522    1.719240
H       4.041360    6.955398    2.020085
H       4.691550    6.906006    3.449322
H       2.738053    8.178799    3.502625
H       2.606433    6.937668    4.446717
H       1.683563    4.753024    3.813407
H       0.154374    5.055708    3.986867
H      -0.369331    4.140058    2.017375
H       0.671826    3.144620    2.629001
H       3.100925    2.926789    2.009244
H       3.597007    3.058501    0.534835
H       5.106598    4.113462    1.871018
H       4.388258    5.219082    1.019077
