23
4513910
Pd      1.638152    4.675750    4.432890
S       2.481303    2.814614    5.483308
Cl      3.371245    4.783105    2.939184
O       2.944473    3.084125    6.847043
C       3.759406    2.002156    4.562331
H       4.533519    2.597847    4.481652
H       3.425395    1.776785    3.668660
H       4.025701    1.181094    5.026898
C       1.256069    1.536451    5.565937
H       1.653885    0.727547    5.948939
H       0.924749    1.342875    4.664287
H       0.512010    1.833829    6.129801
S       0.795001    6.536886    3.382473
Cl     -0.094941    4.568395    5.926597
O       0.331832    6.267375    2.018738
C      -0.483101    7.349344    4.303450
H      -1.257215    6.753653    4.384129
H      -0.149090    7.574715    5.197121
H      -0.749396    8.170406    3.838883
C       2.020235    7.815049    3.299844
H       1.622420    8.623953    2.916842
H       2.351556    8.008625    4.201494
H       2.764294    7.517671    2.735980
