24
4514587
C       2.697605    4.576501    0.424313
H       2.971300    3.969046   -0.223388
C       1.427101    5.138911    0.536631
H       0.705112    4.963882   -0.022464
C       1.420513    6.010197    1.627364
H       0.696479    6.519841    1.913151
C       2.694218    5.985744    2.220153
H       2.960499    6.470935    2.967692
C       3.498961    5.092580    1.473862
H       4.389522    4.882802    1.641091
C       0.461784    2.679492    2.499700
H      -0.256947    2.513472    1.933118
C       0.467454    3.553352    3.617889
H      -0.253065    4.060422    3.917403
C       1.755497    3.522464    4.198199
H       2.024257    4.008943    4.944489
C       2.570612    2.630587    3.461891
H       3.461867    2.427244    3.632864
C       1.765543    2.101638    2.404854
C       2.246886    1.202039    1.364040
Fe      1.882688    4.113188    2.238873
O       3.421904    0.788919    1.346568
O       1.358946    0.851981    0.472984
H       1.723535    0.419555   -0.121054
