27
4514098
Pd      2.439886    0.568783    9.122229
Cl      1.249860   -0.614761   10.699588
Cl      3.999859    1.157395   10.716867
N       5.954858    4.009798    6.865653
H       6.351975    4.156994    6.117316
N       3.321050    1.612231    7.631134
N       1.303408   -0.064939    7.577525
N      -1.231216   -2.469433    6.657479
H      -1.374033   -2.636544    7.491535
C       0.341775   -0.991410    7.656169
H       0.086316   -1.303119    8.492946
C       0.104081   -0.998337    5.287342
H      -0.307261   -1.297058    4.509071
C       1.091007   -0.061476    5.219311
H       1.356137    0.266685    4.390698
C      -0.290374   -1.508328    6.522778
C       4.341055    2.471164    7.769100
H       4.664678    2.645202    8.623565
C       3.370048    1.970697    5.291424
H       3.027046    1.792330    4.445122
C       4.930365    3.109303    6.694215
C       4.424100    2.828765    5.423403
H       4.802859    3.224463    4.670984
C       1.706986    0.409552    6.371750
C       2.804945    1.361132    6.401684
H       6.287568    4.060883    7.537795
H      -1.538061   -2.718800    6.095546
