30
4515784
W       7.318549    4.259945    6.015758
Cl      5.594725    4.238284    7.584617
Cl      7.374322    6.585829    6.112990
Cl      9.336775    4.288410    4.856120
Cl      7.544099    1.952319    6.320123
F       6.637727    5.764982    2.445009
F       2.679223    4.140072    0.536598
F       4.140646    2.498492    4.673501
O       8.633091    4.406581    7.818960
N       6.287698    4.176930    4.637963
C       5.413065    4.141547    3.587287
C       5.567229    4.963415    2.471281
C       4.660652    4.988818    1.440310
H       4.764726    5.576271    0.701389
C       3.593101    4.123515    1.528277
C       3.388366    3.255944    2.579187
H       2.647566    2.661686    2.592089
C       4.300848    3.285657    3.608986
C       9.788764    3.542866    8.107022
H      10.391170    3.491832    7.322358
H       9.493018    2.627663    8.340428
C      10.486848    4.190426    9.271703
H      11.160460    4.848192    8.963233
H      10.931961    3.514514    9.841728
C       9.352547    4.878812   10.022353
H       8.871484    4.240325   10.606453
H       9.690386    5.629573   10.571266
C       8.472395    5.368735    8.918663
H       7.528193    5.403891    9.216577
H       8.747809    6.275999    8.631305
