29
4516598
Pd      4.039060    5.515059    6.956233
N       5.651902    6.100012    6.011115
H       6.279046    6.531175    6.410579
N       3.666259    4.804866    5.147242
H       2.953358    4.356446    4.974364
N       4.469328    6.120260    8.798133
H       5.174030    6.582103    8.969750
N       2.432036    4.903108    7.911120
H       1.764018    4.545064    7.505434
C       6.657356    5.742291    2.496489
H       7.342385    5.949881    1.901369
C       5.542730    5.065095    2.025987
H       5.489319    4.854887    1.121749
C       6.782992    6.112761    3.805154
H       7.542517    6.564022    4.096608
C       4.530089    4.702124    2.843581
H       3.807675    4.222275    2.509730
C       5.726292    5.797786    4.723019
C       4.575275    5.059095    4.224235
C       3.622035    5.777538    9.733995
C       2.450212    5.084593    9.260922
C       3.759350    5.971022   11.124933
H       4.521069    6.395001   11.449296
C       1.457024    4.663877   10.147934
H       0.690945    4.235916    9.840616
C       2.813577    5.555556   12.004232
H       2.921557    5.692922   12.918497
C       1.646282    4.903858   11.500306
H       0.990476    4.630130   12.099978
