30
4516074
Ti      3.364773   11.063409    6.013321
Cl      2.875431   11.628436    3.728120
O       2.234696    9.588512    5.997605
C       3.205368   12.239902    8.075786
H       3.735178   11.964451    8.788989
C       1.917304   11.773754    7.774230
H       1.440488   11.143396    8.264856
C       1.464527   12.416473    6.606301
H       0.648032   12.280513    6.181889
C       2.480825   13.308156    6.199440
H       2.444208   13.869652    5.459911
C       3.554930   13.203979    7.096927
H       4.352657   13.680721    7.056241
C       5.675137   11.251104    6.628638
H       5.978185   11.983874    7.115275
C       5.623577   11.153990    5.239727
H       5.859171   11.821428    4.635818
C       5.148322    9.856193    4.910250
H       5.021540    9.520708    4.051854
C       4.905800    9.176395    6.098921
H       4.609616    8.297071    6.169923
C       5.181951   10.034530    7.169523
H       5.063896    9.842068    8.071797
C       0.835422    9.435954    5.818108
H       0.582495    9.780268    4.946947
H       0.365174    9.949776    6.492220
C       0.430332    7.982775    5.920222
H       0.943337    7.461890    5.296369
H      -0.503739    7.894489    5.717589
H       0.595213    7.666713    6.811327
