27
7000848
Pt      5.032776    9.328000    5.266078
N       3.855073    7.794122    4.723321
C       4.351647    6.560905    4.986625
C       3.594467    5.423211    4.754216
C       2.313450    5.562740    4.231118
C       1.829317    6.821563    3.949559
C       2.614506    7.927058    4.213565
N       6.330007   10.749826    5.923987
N       5.903032   11.723459    6.460425
N       5.581435   12.689425    6.991948
H       3.963425    4.515510    4.960646
H       1.749146    4.754701    4.059795
H       0.917012    6.933492    3.556358
H       2.256186    8.840892    4.023986
N       6.210480    7.794122    5.808835
C       5.713906    6.560905    5.545532
C       6.471086    5.423211    5.777941
C       7.752103    5.562740    6.301038
C       8.236236    6.821563    6.582598
C       7.451047    7.927058    6.318592
H       6.102128    4.515510    5.571511
H       8.316407    4.754701    6.472361
H       9.148541    6.933492    6.975798
H       7.809367    8.840892    6.508171
N       3.735546   10.749826    4.608170
N       4.162521   11.723459    4.071732
N       4.484118   12.689425    3.540209
