28
7000875
Pd      3.196391   -1.452490   -1.276653
S       3.843496   -3.044992   -2.772684
C       3.511023   -0.028302   -2.621107
C       3.516541    0.984753   -4.621357
H       3.363366    1.156231   -5.522769
C       4.202119    1.752244   -3.770601
H       4.618780    2.559691   -3.971925
C       2.488632   -1.328542   -4.468091
H       2.194892   -1.155399   -5.375997
H       1.717248   -1.596582   -3.945948
C       3.535511   -2.449812   -4.465494
H       4.362844   -2.119341   -4.847359
H       3.222287   -3.184839   -5.014913
C       5.673090   -3.165693   -2.666567
H       5.899207   -3.662648   -1.863869
H       5.988297   -3.681794   -3.425104
C       6.416621   -1.869615   -2.640590
H       6.111237   -1.311062   -3.358862
H       7.355851   -2.036932   -2.741901
H       6.258695   -1.427600   -1.802823
C       4.889732    1.642365   -1.345623
H       4.452657    2.438158   -1.033896
H       5.799333    1.846308   -1.575522
H       4.876745    0.978093   -0.652030
Cl      2.972076   -3.253097    0.254318
Cl      2.360619    0.114042    0.222495
N       3.075041   -0.119868   -3.899189
N       4.183045    1.125432   -2.536681
