19
7000454
Ru      5.819946    2.302313    3.078375
Cl      5.173475    0.412462    1.815376
Cl      7.843403    2.428170    1.829287
O       7.293136    1.158882    5.263945
O       5.004801    3.426429    1.613144
O       4.020199    5.386684    1.250008
N       6.641341    1.526485    4.395486
N       5.912179    4.199391    3.928012
H       6.508666    4.685374    3.651823
H       5.972301    4.137085    4.748393
N       3.899353    2.417453    3.890164
H       3.823734    1.956393    4.572451
H       3.400156    2.093465    3.324489
C       4.510106    4.566993    2.010037
C       4.583420    4.746433    3.529073
H       4.549259    5.657339    3.795032
C       3.539284    3.834280    4.171467
H       2.668277    4.062319    3.866637
H       3.542479    4.012474    5.135057
