24
7000428
Cu      1.683591    2.091360   -0.118425
N       2.584006    2.195200    2.691903
C       1.864156    1.180000   -2.116676
H       2.560977    0.580000   -2.356296
C       1.899385    2.568000   -2.253501
H       2.626393    3.072000   -2.600374
C       0.692629    3.090400   -1.798436
H       0.449651    4.008800   -1.778956
C      -0.098081    2.014400   -1.376696
H      -0.977361    2.076000   -1.020905
C       0.633318    0.820800   -1.568908
H       0.341548   -0.060000   -1.363553
C       2.263531    2.172000    1.580877
C       2.890843    2.244800    4.061793
C       4.034605    1.618400    4.532583
H       4.624851    1.171200    3.938111
C       4.293776    1.660800    5.886280
H       5.078469    1.245600    6.224000
C       3.435825    2.294400    6.755105
H       3.620426    2.301600    7.686123
C       2.303014    2.922400    6.267183
H       1.713976    3.368000    6.864706
C       2.025348    2.903200    4.906915
H       1.251912    3.336800    4.564736
