29
7000847
Pt     -2.733843    4.946050    4.177563
N      -1.201727    4.944523    5.481300
C      -0.530666    3.917341    6.009129
C       0.544563    4.098549    6.866851
C       0.945481    5.350713    7.234809
C       0.239271    6.469517    6.712055
C       0.535081    7.848934    7.033067
C      -0.164360    8.862882    6.486205
C      -1.252082    8.612449    5.586612
C      -2.052808    9.607055    5.001687
C      -3.102651    9.247694    4.204868
C      -3.348324    7.895763    3.919383
N      -2.574103    6.932716    4.445944
C      -1.552981    7.278843    5.285902
C      -0.811608    6.213994    5.851796
N      -2.806286    2.911537    4.121126
N      -3.138081    2.326176    3.149210
N      -3.447595    1.655301    2.249617
N      -4.216531    5.212262    2.829468
N      -5.117404    4.472162    2.655639
N      -6.046318    3.813503    2.400607
H      -0.797717    3.032682    5.789623
H       1.007878    3.341142    7.203088
H       1.680085    5.470839    7.824810
H       1.238614    8.044394    7.640831
H       0.065654    9.758740    6.701905
H      -1.864786   10.525309    5.159020
H      -3.669796    9.917551    3.840717
H      -4.070034    7.660600    3.348415
