18
7001750
Cr     -1.307894   -0.057079    2.936891
C      -0.375828    1.422606    4.222879
H      -0.563754    1.474166    5.020060
C      -1.022689    2.079808    3.158584
H      -1.702163    2.556189    3.221985
C      -0.420039    1.685487    1.992434
H      -0.585495    1.946189    1.268007
C       0.595452    0.795178    2.291766
H       1.053464    0.363095    1.621386
C       0.628322    0.624523    3.660590
H       1.171795    0.094405    4.147006
C      -3.117791    0.126357    2.853015
C      -1.158172   -1.417523    1.714927
C      -1.361574   -1.450201    4.144927
O      -4.247313    0.263607    2.796891
O      -1.049504   -2.269344    0.956202
O      -1.389347   -2.314368    4.894299
H      -2.156770   -0.065357    3.928743
