19
7001461
Mn      6.052636    1.790764    5.497551
F       3.209727    3.286193    3.862454
F       4.456818    5.812448    5.914163
F       5.596981    4.599516    7.272666
F       5.090490    3.512190    2.798833
C       7.378977    2.610505    6.528750
O       3.927352    0.374357    3.906751
O       7.328700   -0.856332    5.994802
C       4.913743    1.702671    6.997973
O       4.205708    1.679610    7.868964
C       4.718411    0.943195    4.484403
C       7.098961    2.105469    3.973970
O       8.207215    3.064807    7.150818
O       7.756528    2.298413    3.076614
C       6.835986    0.156046    5.809772
C       4.405422    3.971104    3.899507
C       5.134743    3.656706    5.160033
C       5.072866    4.621424    6.046700
H       4.211756    4.904306    3.740961
