19
7001459
Mn      7.053339    1.534323    1.657766
C       8.783567    1.484556    0.957703
O       9.842748    1.502248    0.572386
F       6.686620    3.221410    4.536802
O       6.049377    3.100645   -0.694406
F       8.820646    2.869885    4.409530
O       8.008632   -0.033845    4.034987
C       5.410653    1.868387    2.489679
O       6.181580   -1.009960    0.374677
O       4.412065    2.092993    2.973581
C       6.438394    2.506054    0.182625
C       6.506992   -0.044614    0.875684
C       7.656015    0.596130    3.159304
C       7.708901    3.389864    2.411430
C       8.126819    4.426746    1.675409
H       8.436562    5.198254    2.092914
H       8.106348    4.376748    0.747469
C       7.802053    3.621394    3.866638
H       7.966190    4.572125    4.039028
