18
7001752
W      -0.961949    2.823108    8.002921
C      -2.985935    1.898561    8.771792
C      -3.016079    1.863463    7.350268
C      -2.974529    3.182914    6.877570
C      -2.929538    4.064741    8.004947
C      -2.924706    3.253109    9.164371
C       0.186140    1.462034    7.125937
C       0.064357    3.987965    6.765405
C       0.231479    3.745572    9.302861
O       0.843989    0.651499    6.646372
O       0.657120    4.667981    6.056932
O       0.877116    4.261068   10.073140
H      -3.019956    1.195512    9.453941
H      -2.825350    1.085832    6.810042
H      -2.944296    3.312336    5.894406
H      -2.912730    4.968504    8.000369
H      -2.879036    3.641376    9.991877
H      -0.336774    1.645200    8.904560
