29
7001390
Mn      1.959885    5.083970    1.996697
S       3.954141    6.430208    2.048056
N       3.066152    3.355602    2.306708
H       3.678706    3.499128    2.977595
H       2.505364    2.675519    2.572909
N       2.441464    4.644429    0.018687
H       1.706704    4.781778   -0.517305
H       3.113271    5.203272   -0.267315
N       6.245432    6.677896    3.289092
N       4.976441    4.758523    3.887086
O       0.422384    7.502232    1.366402
O      -0.583759    3.600141    1.891132
O       1.663295    5.801237    4.831476
C       1.045287    6.565861    1.597704
C       0.417973    4.160438    1.925908
C       1.781625    5.480271    3.743899
C       3.770610    2.960148    1.068519
H       3.986172    1.993619    1.095250
H       4.616351    3.466426    0.983869
C       2.879000    3.253256   -0.093932
H       3.369182    3.117603   -0.943029
H       2.095487    2.647661   -0.084155
C       5.159014    5.892439    3.182784
C       7.204866    6.270331    4.115789
H       7.986216    6.803254    4.202790
C       7.114545    5.116067    4.847564
H       7.817293    4.829015    5.418085
C       5.964742    4.403887    4.711803
H       5.858572    3.615402    5.229974
