18
7001751
Mo      1.373889    7.663375    2.413605
C       2.388234    5.711957    3.231700
C       1.813200    5.397154    1.991975
C       2.465071    6.160266    1.006763
C       3.451682    6.943858    1.651256
C       3.403654    6.666225    3.019264
C      -0.591632    7.527949    2.277276
C       1.095660    9.090583    1.052637
C       1.591939    9.267328    3.534242
O      -1.728044    7.424785    2.217753
O       0.933381    9.931068    0.292690
O       1.739194   10.185185    4.207162
H       2.123186    5.309920    4.002423
H       1.103725    4.854784    1.806222
H       2.308540    6.136750    0.123151
H       3.971123    7.517330    1.169939
H       3.946827    7.054608    3.674019
H       0.460535    7.615942    3.838221
