27
7002990
Ru      7.087978    8.019118    6.978828
Cl      4.960123    8.569398    7.974485
O       7.500189   10.052594    6.996270
C       7.624318    5.916258    6.793509
H       7.759222    5.247541    7.454550
O       8.431622   11.704311    8.168349
C       6.352277    6.107431    6.236953
H       5.619202    5.581441    6.533852
C       6.158578    7.087591    5.227288
H       5.298442    7.213392    4.843492
C       7.236830    7.866170    4.800043
H       7.112807    8.517117    4.119347
C       8.516744    7.683991    5.382462
H       9.247195    8.221116    5.097977
C       8.705753    6.723350    6.369367
H       9.563895    6.608177    6.759371
C       7.899633    7.379665    9.878364
H       7.607066    6.494365    9.694225
C       8.392633    7.684995   11.143548
H       8.441376    7.013240   11.813899
C       8.809728    8.973858   11.414585
H       9.157567    9.197750   12.270110
C       8.714927    9.938606   10.419404
H       8.980152   10.836112   10.585957
C       8.228248    9.566853    9.186289
C       8.058234   10.550966    8.047314
N       7.827497    8.312691    8.908011
