25
7002223
C       0.896215    1.974496    7.829593
C       1.718846    3.079553    7.544310
H       1.467456    3.603808    6.818408
C       2.866712    3.478929    8.223911
C      -0.264421    1.631669    6.981213
H      -0.089030    0.810533    6.516695
H      -0.414078    2.334994    6.344928
H      -1.043741    1.526818    7.530868
C       3.623031    4.698263    7.763874
H       3.571565    5.379205    8.437499
H       3.236688    5.024597    6.948353
H       4.541849    4.466177    7.613017
C       0.217637   -1.014344   10.415062
H       0.577733   -1.271170    9.562201
H      -0.483528   -0.372280   10.285116
H      -0.136061   -1.788356   10.858669
C       2.676274   -1.672902   11.509890
H       2.351049   -2.323213   12.137214
H       3.532725   -1.351281   11.799654
H       2.762559   -2.079346   10.645080
O       1.056649    1.163963    8.816881
O       3.352403    2.907551    9.245552
S       1.512207   -0.291462   11.415941
Cl      4.139221    1.465556   11.789796
Pt      2.496448    1.326152   10.193706
