28
7002953
Re     -0.703301    4.055204    8.805036
Br      0.287391   -1.354629    6.552066
Br      3.019051    8.660237    8.935744
Cl     -1.326860    4.726672    6.499456
C      -0.115093    3.531287   10.565564
C      -2.296146    3.012666    9.077671
C      -1.562268    5.528099    9.587432
C       0.090763    1.322606    7.527692
H      -0.754623    1.060197    7.813071
C       0.884720    0.418876    6.846921
C       2.118065    0.796721    6.433012
H       2.656743    0.206482    5.959196
C       2.566961    2.079658    6.728195
H       3.416918    2.350293    6.463511
C       1.776417    2.913124    7.388270
C       2.123584    4.321128    7.696523
C       3.340855    4.874701    7.352325
H       3.953991    4.368094    6.871973
C       3.656720    6.148143    7.704148
H       4.483728    6.514533    7.489569
C       2.691902    6.890273    8.404525
C       1.481589    6.294213    8.699707
H       0.846819    6.790417    9.163721
N       0.507427    2.557132    7.781483
N       1.178931    5.047103    8.351152
O       0.237822    3.195897   11.591622
O      -3.214385    2.368822    9.249770
O      -2.145116    6.434515   10.069963
