29
7004244
Hg      5.761730    1.870375   10.315391
S       3.966258    2.580529   11.737338
S       5.522114    0.260351   12.802537
O       1.687027    1.416049   16.239129
N       3.585286    1.523125   14.126287
C       7.504394    1.525531    9.236777
C       8.022101    2.471167    8.346041
H       7.520425    3.253182    8.144488
C       9.269690    2.277468    7.747883
H       9.615771    2.928345    7.147558
C       9.994857    1.144148    8.029624
H      10.845443    1.013010    7.626518
C       9.486580    0.190090    8.900855
H       9.987313   -0.595534    9.087237
C       8.242763    0.381383    9.501180
H       7.898568   -0.275510   10.095004
C       4.312339    1.434095   13.014276
C       2.749788    2.686522   14.472829
H       2.547043    3.203855   13.653612
H       3.246749    3.277244   15.092659
C       1.472966    2.252203   15.116499
H       0.964689    3.052265   15.400407
H       0.925083    1.764948   14.448989
C       2.380132    0.237011   15.814350
H       1.837907   -0.233401   15.131670
H       2.492349   -0.372961   16.585888
C       3.739938    0.564254   15.233530
H       4.318940    0.954058   15.935716
H       4.169946   -0.263479   14.901942
