17
7004924
Ru      8.319410    0.369496    2.930219
Cl      8.306456   -1.548761    1.474109
N       6.861384    1.141192    1.602987
H       6.872789    2.060707    1.629615
H       7.053346    0.875776    0.742380
O       8.096285    2.837076    4.687540
O      10.203299   -0.991088    4.922929
O      10.657393    1.311178    1.255762
O       6.635052   -0.462243    3.798495
O       4.536017   -1.031845    3.335918
C       8.198046    1.915573    4.033564
C       9.517980   -0.483118    4.199721
C       9.805045    1.007987    1.926780
C       5.524387    0.646146    1.991752
H       5.092464    0.237583    1.199312
H       4.968730    1.415556    2.272940
C       5.554160   -0.372776    3.113311
