26
7004736
V       4.419480    1.154364    3.253098
Cl      5.479617    3.216883    3.078446
O       5.183765   -0.222021    2.867256
O       2.914952    0.841770    3.755289
N       3.737207    1.552679    1.269470
N       5.142245    1.143925    5.269377
C       2.503430    2.023923    1.031331
H       1.923306    2.193012    1.764665
C       2.054634    2.270940   -0.252650
H       1.181176    2.615735   -0.396467
C       2.883627    2.012160   -1.324146
H       2.584417    2.162870   -2.212957
C       4.149668    1.533565   -1.085489
H       4.742183    1.355653   -1.806125
C       4.544033    1.316689    0.218445
H       5.420551    0.987333    0.380919
C       4.389258    1.629872    6.270649
H       3.546529    2.015836    6.063605
C       4.796943    1.589438    7.591686
H       4.244109    1.943789    8.279153
C       6.023649    1.024827    7.897457
H       6.323980    0.981452    8.797410
C       6.802533    0.526382    6.873382
H       7.647174    0.133801    7.058659
C       6.335002    0.607986    5.572816
H       6.878057    0.271278    4.869023
