26
7004756
Re      4.403313    1.854946    4.209042
Br      3.481416    1.359849    6.584469
C       6.162876    2.259915    4.721912
C       4.154959    3.698264    4.203513
C       2.313862    2.024659    2.071296
H       2.353461    3.010782    2.143711
H       1.470502    1.777215    1.614967
C       3.501062    1.511486    1.285077
H       3.344921    0.568026    1.028751
H       3.601731    2.041724    0.454030
C       5.623998    0.409564    1.897730
H       6.534630    0.597281    2.239115
H       5.691990    0.196249    0.933348
C       5.034041   -0.758181    2.637972
H       4.195897   -1.048288    2.197735
H       5.668203   -1.518799    2.629925
N       2.361780    1.413970    3.416144
H       2.223740    0.505860    3.364420
H       1.716978    1.780871    3.960980
N       4.757062    1.606563    2.090837
H       5.229959    2.350116    1.793131
N       4.755590   -0.347398    4.034545
H       5.467818   -0.582653    4.566737
H       4.013321   -0.797187    4.340297
O       7.240457    2.563431    5.043756
O       4.058270    4.875760    4.192018
