27
7005729
Os      4.448172    2.482136    7.278140
Cl      3.874054    0.180259    7.043263
Cl      5.355853    4.675890    7.383981
O       3.020689    2.588331    9.919718
O       1.974098    3.479265    5.928130
N       5.563618    2.277540    5.506790
N       6.324917    1.789837    7.964944
C       3.569789    2.577175    8.943344
C       2.881247    3.099941    6.439613
C       5.116125    2.575581    4.291387
H       4.218314    2.868840    4.193142
C       5.904065    2.475171    3.176254
H       5.555600    2.696710    2.320408
C       7.197415    2.056002    3.305897
H       7.760471    1.985875    2.544245
C       7.668741    1.735648    4.551686
H       8.566159    1.443983    4.660059
C       6.838221    1.840839    5.645549
C       7.236475    1.515704    7.015916
C       8.456439    0.956280    7.349139
H       9.093204    0.758649    6.671552
C       8.741695    0.688522    8.670891
H       9.569679    0.288478    8.909920
C       7.840825    0.999313    9.618905
H       8.033858    0.838339   10.534509
C       6.635341    1.553955    9.249220
H       6.003818    1.775493    9.924782
