22
7005724
Fe      0.617867    2.732237    1.968023
Br      2.716004    3.947658    1.945869
O       0.910754    2.243912    4.840994
O      -0.873754    5.233272    2.300495
O       3.279414   -0.049192    1.606173
O       1.575980   -0.866536    2.850335
C       0.787242    2.452032    3.726867
C      -0.279026    4.258892    2.172869
C      -0.327940    0.910052    1.695271
H      -0.786157    0.374616    2.404042
C      -0.926552    1.857944    0.870913
H      -1.888854    2.130392    0.899007
C       0.062265    2.368784   -0.033713
H      -0.090244    3.066932   -0.734457
C       1.281639    1.706584    0.219133
H       2.145236    1.856052   -0.260873
C       1.063234    0.796532    1.305166
C       2.111334   -0.058652    1.899153
C       2.473374   -1.806860    3.474021
H       1.963329   -2.575012    3.805530
H       2.932514   -1.371700    4.222124
H       3.133865   -2.111472    2.817425
