28
7005463
Re     10.787783    8.856888    8.076404
N       9.513970    8.216024    6.431607
C      10.293560    7.424752    9.188010
O       9.999053    6.572501    9.921147
C      11.679340    9.559807    9.568860
O      12.144595    9.948458   10.587634
C      12.408309    7.851054    7.693173
O      13.258656    7.233465    7.426578
O       8.943433    9.975052    8.288252
C       9.792472    7.370559    5.465200
H      10.636966    6.986000    5.452822
C       8.945189    7.032732    4.503553
H       9.220321    6.467677    3.824688
C       7.636095    7.544495    4.522596
H       7.001735    7.256761    3.903714
C       7.339669    8.463061    5.474721
H       6.501881    8.867873    5.491859
C       8.276917    8.789888    6.398283
C       8.072806    9.758287    7.493227
H       7.255756   10.205133    7.560828
C      12.363823   12.644161    7.502748
O      11.139606   10.534543    6.752473
O      13.544517   10.602125    6.523011
O      12.120042   11.925718    5.074828
S      12.328340   11.287496    6.320208
F      11.243030   13.292554    7.578918
F      12.680717   12.193714    8.735750
F      13.313244   13.528265    7.156174
