22
7005717
Fe      4.637243    6.172610    6.914352
I       2.407117    6.177076    5.568911
O       4.349449    3.310120    7.363695
O       6.098187    5.960002    4.384415
O       1.919250    6.504109    9.648607
O       3.587955    5.263220   10.488254
C       4.472305    4.421885    7.163623
C       5.529660    6.034715    5.365482
C       5.526653    6.414778    8.786194
H       5.969072    5.696882    9.322549
C       6.163045    7.262610    7.854325
H       7.132560    7.246368    7.611228
C       5.179023    8.172974    7.341122
H       5.346349    8.888435    6.661995
C       3.963884    7.908230    7.948862
H       3.107498    8.393866    7.773293
C       4.127593    6.797277    8.861438
C       3.076533    6.196323    9.683335
C       2.652986    4.636279   11.415878
H       3.153036    4.149019   12.104651
H       2.076462    4.012586   10.927756
H       2.101415    5.326564   11.840332
