27
7005732
Os     -0.151582    1.643470   10.655124
I       0.898885    3.029733   12.721946
I      -0.972803    0.315443    8.457609
O      -2.559822    3.397739   10.554501
O      -1.621190   -0.231245   12.453875
N       1.632233    0.511434   10.564782
N       1.085051    2.799056    9.361931
C      -1.668589    2.745146   10.595624
C      -1.091600    0.470292   11.804901
C       1.871938   -0.624929   11.185484
H       1.181285   -0.988111   11.726510
C       3.065148   -1.327884   11.101953
H       3.195876   -2.139369   11.578724
C       4.059638   -0.793751   10.293627
H       4.899949   -1.230705   10.215236
C       3.817290    0.375950    9.608670
H       4.478036    0.729911    9.025236
C       2.624320    1.028543    9.768022
C       2.317939    2.286912    9.103627
C       3.191143    2.953692    8.287590
H       4.055850    2.594766    8.128238
C       2.824400    4.132615    7.699016
H       3.426001    4.586592    7.120722
C       1.574637    4.657526    7.953465
H       1.295701    5.471139    7.549945
C       0.740025    3.965211    8.810625
H      -0.111568    4.333358    9.016240
