21
7005457
Re      7.157686    3.651957    9.217418
Br      9.473666    3.711092    7.996766
N       8.211811    4.546523   10.907167
C       5.486946    3.734997   10.110676
O       4.457436    3.791615   10.632556
C       6.227436    3.108603    7.630856
O       5.625629    2.794957    6.698843
C       7.317978    1.823462    9.712431
O       7.440819    0.733339   10.039349
O       7.170444    5.790324    8.829158
C       8.712573    3.939901   11.984212
H       8.615010    3.017835   12.054351
C       9.360082    4.602243   12.992308
H       9.689937    4.139412   13.728170
C       9.515496    5.975456   12.892449
H       9.969656    6.443679   13.555795
C       8.992314    6.642292   11.805894
H       9.067448    7.566155   11.728622
C       8.353229    5.893675   10.833462
C       7.752327    6.482323    9.654180
H       7.809484    7.400795    9.522224
