21
7005456
Mn      6.165860    6.466857    7.934462
Cl      8.271712    7.216714    8.763333
N       7.158346    4.827025    7.157420
C       4.593530    5.855100    7.323168
O       3.593191    5.466644    6.895643
C       5.344184    7.840988    8.801745
O       4.847670    8.713196    9.352923
C       6.306214    7.494528    6.499689
O       6.417159    8.174527    5.557820
O       6.186316    5.201752    9.571289
C       7.604501    4.603320    5.926149
H       7.472137    5.255861    5.277627
C       8.267230    3.426647    5.568343
H       8.580543    3.314390    4.700140
C       8.454925    2.440567    6.495743
H       8.883920    1.648312    6.266853
C       7.992268    2.646505    7.790156
H       8.110553    1.996387    8.445255
C       7.354886    3.829639    8.083504
C       6.798556    4.135720    9.377917
H       6.899738    3.529212   10.075110
