27
7005731
Os     -0.818237    1.519082   10.777807
Br     -1.792603    2.861227    8.873489
Br     -0.100291    0.244957   12.830987
O       1.632452    3.229424   10.892714
O       0.623650   -0.377816    8.947674
N      -2.640126    0.426945   10.839812
N      -2.043051    2.692455   12.071302
C       0.728684    2.613571   10.845964
C       0.091699    0.336297    9.623086
C      -2.869177   -0.722417   10.189005
H      -2.175105   -1.089853    9.655073
C      -4.076879   -1.395012   10.262821
H      -4.216773   -2.197005    9.773178
C      -5.078841   -0.873266   11.067410
H      -5.915769   -1.315435   11.146147
C      -4.834893    0.303775   11.753895
H      -5.503608    0.669827   12.321044
C      -3.615516    0.947307   11.614876
C      -3.286258    2.213612   12.285367
C      -4.195580    2.900046   13.088726
H      -5.070312    2.560289   13.235127
C      -3.795328    4.075011   13.658336
H      -4.400410    4.564234   14.203341
C      -2.510089    4.560082   13.447962
H      -2.224512    5.372455   13.849026
C      -1.671730    3.840434   12.651984
H      -0.791486    4.164967   12.503123
