28
7005719
Fe      2.622452    9.581103    5.537721
O       1.412233   11.363186    7.494170
O       5.033868   11.192308    5.336355
O       4.737852    8.420895    2.547414
O       4.327457    6.528318    3.695120
O       4.689546    8.406835    7.042967
O       2.650813    7.871654    7.799256
C       1.891156   10.654594    6.738579
C       4.097172   10.547178    5.427714
C       2.307976    9.633634    3.459181
H       2.744236   10.259003    2.811990
C       2.804987    8.344386    3.857860
C       1.866787    7.766771    4.756496
H       1.937452    6.865514    5.183952
C       0.813887    8.690955    4.931110
H       0.005743    8.556558    5.503845
C       1.085430    9.842132    4.114194
H       0.500880   10.647880    4.023115
C       4.027884    7.651375    3.388078
C       5.865878    7.754611    1.924251
H       6.453145    7.388661    2.617819
H       6.365975    8.398221    1.380152
H       5.541544    7.026385    1.353611
C       3.320266    8.474476    6.996449
C       5.246505    7.621734    8.136611
H       4.889403    7.948543    8.989149
H       6.222915    7.709136    8.137030
H       5.002487    6.679309    8.019690
