30
7005030
Cr      8.232299    3.919559    1.635693
O       8.249924    4.485085    4.744628
O       9.598517    1.193244    1.665830
O       8.406703    4.341950   -1.348784
O      10.996622    5.186461    1.700689
O       6.746870    6.538759    1.983798
O       5.575699    2.518965    1.144059
N       6.900349    3.042805    6.520197
H       7.323178    3.800302    6.374124
C       7.936614    3.641787    3.720821
C       7.229422    2.530837    4.190212
H       7.050051    1.863726    3.537491
C       6.740709    2.246859    5.483665
C       6.447913    2.799974    7.887425
H       5.957917    1.952090    7.923390
H       5.859591    3.529815    8.170535
H       7.223505    2.754106    8.484077
C       5.967155    0.972672    5.667363
H       6.394103    0.428327    6.361213
H       5.953645    0.474195    4.823013
H       5.048806    1.183800    5.937009
C       9.110994    5.621533    4.557425
H      10.021317    5.313273    4.365611
H       9.113951    6.166553    5.372634
H       8.783899    6.159133    3.806768
C       9.094633    2.215831    1.639824
C       8.348722    4.159827   -0.208044
C       9.949258    4.731153    1.740896
C       7.326120    5.561500    1.843627
C       6.566669    3.049550    1.350075
