27
7005728
Os      7.568806    5.334199    1.202647
Cl      8.472424    4.036938    2.997508
Cl      6.912369    6.563689   -0.739664
O       6.149475    7.248898    3.033466
O       5.123572    3.646266    1.091999
N       8.761244    4.159662   -0.080844
N       9.389499    6.413011    1.170430
C       6.645771    6.539144    2.377059
C       5.993979    4.236023    1.118545
C       8.393240    3.015601   -0.664853
H       7.508606    2.699246   -0.524884
C       9.257242    2.258803   -1.478121
H       8.974545    1.448143   -1.884755
C      10.535152    2.747654   -1.659115
H      11.155637    2.257440   -2.185205
C      10.915603    3.925123   -1.091999
H      11.787529    4.268068   -1.246448
C      10.037867    4.614422   -0.295624
C      10.373636    5.888025    0.393361
C      11.597970    6.497554    0.278731
H      12.278472    6.107564   -0.258219
C      11.830290    7.670250    0.939964
H      12.663351    8.116147    0.842227
C      10.853778    8.202054    1.748406
H      11.011027    9.001124    2.237090
C       9.641874    7.550935    1.836489
H       8.962112    7.920471    2.386712
