30
7006056
Ta      8.980021   10.512127    9.067529
Cl     10.032609   11.184486    7.086692
Cl     11.007250   10.676752   10.205233
Cl      8.433873   12.645414    9.751748
Cl      8.020677    9.491978   10.950540
Cl      6.953106   10.377556    7.904044
O       9.413446    8.636027    8.487186
C       9.552681    7.471449    8.015376
C      10.905124    6.966116    7.806017
C      11.171734    5.590686    7.838400
H      10.459892    4.972366    7.953874
C      12.462053    5.131617    7.704099
H      12.639969    4.199242    7.731712
C      13.509932    6.033742    7.527123
H      14.399953    5.713461    7.429222
C      13.259573    7.397606    7.494489
H      13.975793    8.007030    7.366464
C      11.969615    7.874469    7.650128
H      11.805034    8.809512    7.650128
C       8.359129    6.675194    7.740499
C       8.361868    5.704564    6.728849
H       9.142218    5.563996    6.205452
C       7.233505    4.954572    6.492881
H       7.233707    4.303334    5.801295
C       6.093845    5.145851    7.262287
H       5.323751    4.611160    7.107904
C       6.073386    6.112923    8.256364
H       5.288310    6.243704    8.774741
C       7.193800    6.887825    8.492332
H       7.174100    7.561305    9.162581
