24
7006052
Ta      3.988456   -1.298159    2.729139
Cl      2.056816   -0.199305    1.960144
Cl      2.871534   -2.752391    4.103011
Cl      3.881829   -2.552931    0.718886
Cl      6.082233   -2.270904    3.130191
O       5.143390    0.068651    1.463451
O       4.283709    0.056746    3.931463
C       5.306654    1.295716    1.589467
C       4.554602    2.062631    2.630882
H       3.601760    2.107471    2.366962
H       4.902479    2.988805    2.658225
C       4.648835    1.459613    4.033702
C       6.260044    1.999237    0.695466
H       6.673686    1.352925    0.085596
H       6.954922    2.432173    1.234006
H       5.780141    2.678018    0.175947
C       6.063907    1.521461    4.584131
H       6.086347    1.114810    5.474565
H       6.349263    2.456912    4.644761
H       6.668655    1.034408    3.986149
C       3.641102    2.107471    4.963368
H       2.734038    1.929658    4.636440
H       3.795853    3.073846    4.990711
H       3.740920    1.734836    5.864502
