28
7006313
W       1.328159    3.973329    2.910775
O       3.460358    4.046677    0.619367
O       0.571882    6.692051    1.529836
O      -1.368341    3.375608    1.462944
C       2.667529    4.040193    1.450557
C       0.866907    5.720297    2.050103
C      -0.379741    3.606591    1.989406
C       1.473295    1.823558    2.006748
C       2.770534    1.069820    2.273075
C       2.984475    0.671880    3.731064
C       3.414432    1.826799    4.637817
C       2.430862    2.951732    4.724529
C       1.017061    2.868253    4.926442
C       0.507263    4.173920    5.093671
C       1.586872    5.082457    4.963604
C       2.770063    4.331152    4.751781
H       0.722194    1.285405    2.363503
H       1.348562    1.890016    1.026910
H       3.529595    1.636339    1.984451
H       2.780353    0.250435    1.716884
H       3.675839   -0.036471    3.769465
H       2.142345    0.287717    4.082865
H       3.569593    1.471814    5.549525
H       4.275178    2.185027    4.305837
H       0.506912    2.067509    4.943784
H      -0.399624    4.402473    5.263377
H       1.528055    6.029897    5.010676
H       3.643561    4.690190    4.645250
