30
7006885
Fe      0.925460   13.541675    6.405075
C       1.083712   11.681396    5.589765
C       2.367176   12.161138    5.988660
H       3.115672   12.284739    5.415937
C       2.338476   12.424921    7.392644
H       3.058272   12.757493    7.915918
C       1.037792   12.099886    7.866194
H       0.732424   12.183337    8.761641
C       0.277242   11.629462    6.766753
H      -0.622790   11.328270    6.807111
C       0.658952   11.356635    4.173522
H      -0.263466   10.971992    4.206580
C       1.588258   10.309178    3.557411
H       2.503788   10.658193    3.534408
H       1.292648   10.107333    2.644608
H       1.563002    9.492068    4.097765
C       0.623938   12.611967    3.266917
H       1.519952   13.032923    3.243777
H       0.382284   12.350514    2.342957
C      -0.391468   13.601324    3.800935
O      -1.555540   13.563503    3.425181
C       0.029274   14.499418    4.890045
C       1.345456   15.035891    5.121586
H       2.067548   15.040413    4.504098
C       1.367842   15.559756    6.447472
H       2.107728   15.985920    6.863584
C       0.092988   15.335987    7.041407
H      -0.157276   15.570719    7.926937
C      -0.734720   14.705374    6.089072
H      -1.642788   14.459406    6.218961
