29
7007429
C      -0.646950    9.513468   14.191804
H      -1.436440    8.934939   13.984894
C      -0.613788   10.567322   15.147469
H      -1.377097   10.855098   15.725154
C       0.710366   11.144858   15.150609
C       1.474838   10.399618   14.183490
H       2.438864   10.549460   13.964572
C       0.638224    9.407288   13.597122
H       0.910501    8.746397   12.898617
C       1.566179    8.915093   17.495157
H       1.833220    9.658348   18.108313
C       2.403374    8.301833   16.523050
H       3.360419    8.525107   16.340341
C       1.635412    7.310495   15.868143
H       1.955396    6.711128   15.133983
C       0.317657    7.315457   16.434929
H      -0.442742    6.721051   16.170380
C       0.293804    8.303817   17.446016
H      -0.493940    8.543961   18.014095
C       1.411423   13.810257   17.708349
H       1.532435   13.604844   18.668078
H       1.026859   14.718239   17.622444
C       2.742558   13.717970   16.965874
H       2.959566   14.578320   16.528777
H       3.475032   13.482788   17.589191
O       0.550955   12.831819   17.081892
O       2.555803   12.678008   15.981390
Fe      0.769825    9.140947   15.622475
B       1.274702   12.224513   16.089463
