26
7007237
Mo      6.727330    2.459520    1.573654
Cl      8.220445    1.581189    3.401180
O       4.660800    2.529946    3.930028
O       4.078489    1.759027    0.072029
O       7.418275   -0.446853    0.523667
N       9.654045    4.330906    2.321623
C       5.419037    2.435328    3.079575
C       5.049977    2.036429    0.596454
C       7.133582    0.578458    0.927537
C       7.237674    4.698624    1.932158
H       6.973077    5.057741    2.769975
C       6.412066    4.549171    0.802433
H       5.523672    4.873882    0.715240
C       7.134441    3.835238   -0.178178
H       6.813285    3.592243   -1.038740
C       8.414291    3.542784    0.338665
H       9.072270    2.996582   -0.075820
C       8.546398    4.215859    1.601076
C       9.609107    4.914739    3.662129
H       9.323698    5.851238    3.600209
H      10.499612    4.870656    4.067768
H       8.972499    4.415846    4.214355
C      10.871827    3.659981    1.910676
H      10.771993    2.693376    2.039571
H      11.622159    3.985766    2.449001
H      11.043181    3.847066    0.964184
