22
7007471
Pd      4.461352    2.035325    4.146049
Cl      4.861370    2.035325    1.870213
Cl      6.704697    2.035325    4.677788
N       2.424162    2.035325    4.017133
H       2.078359    2.035325    3.261453
C       2.023415    0.823085    4.781553
H       2.255240    0.065130    4.267146
H       1.082294    0.846695    4.915677
C       2.828005    0.828784    6.089612
H       3.380650    0.065130    6.128148
H       2.255240    0.879260    6.851871
N       3.705670    2.035325    6.068934
C       4.636509    2.035325    7.217492
H       4.234103    2.035325    7.970352
H       5.195897    1.261902    7.152639
C       2.023415    3.247565    4.781553
H       2.255240    4.005520    4.267146
H       1.082294    3.223955    4.915677
C       2.828005    3.241866    6.089612
H       3.380650    4.005520    6.128148
H       2.255240    3.191390    6.851871
H       5.195897    2.808749    7.152639
