29
7008669
V       0.073966    1.574098   11.022107
Cl      1.842015    1.126204   12.402480
Cl      0.492144   -0.311405    9.797563
O      -0.887664    2.383767    9.743286
O       0.071199    3.431737   11.960044
O       1.696666    2.612652    9.743286
O      -1.108341    1.038018   11.918696
C      -1.193624    3.989021   12.451505
H      -1.548441    3.447047   13.200346
H      -1.868883    4.016579   11.729600
C      -0.852610    5.373810   12.913470
H      -1.399570    5.633315   13.695982
H      -0.991592    6.034437   12.188872
C       0.620119    5.271233   13.282503
H       1.059212    6.157682   13.252872
H       0.736217    4.881594   14.184883
C       1.163698    4.357992   12.221196
H       1.400831    4.865518   11.403666
H       1.966066    3.877258   12.544436
C       3.046555    2.170958    9.535603
H       3.040578    1.319722    9.050742
H       3.487046    2.050009   10.401619
H       3.532661    2.842302    9.013031
C       1.068640    2.948706    8.491805
H       1.069523    2.170958    7.880341
H       1.541896    3.700427    8.054083
C      -0.318680    3.337580    8.847370
H      -0.314846    4.231684    9.271623
H      -0.868689    3.389634    8.025800
