22
7009919
Cr      2.091398    0.726980    2.370045
O      -0.043656    3.560781    4.205256
H      -0.895570    3.869141    4.704595
O       0.133557    1.804285    5.575409
O      -0.389261   -0.681041    3.289249
C       0.577244   -0.162468    2.923287
C       0.559108    2.513906    4.646174
C       1.850692    2.168773    3.988104
C       2.658122   -0.848124    1.552031
O       2.972250   -1.838417    1.065919
C       2.607564    1.065349    4.478625
H       2.326061    0.603955    5.246925
O       0.691018    1.467501   -0.169753
C       3.462291    2.469782    2.181442
H       3.759713    2.946594    1.427472
C       2.274050    2.860730    2.838410
H       1.768127    3.581217    2.508824
C       1.231972    1.175345    0.803573
C       4.194034    1.375859    2.648815
H       4.970587    1.103335    2.194670
C       3.768810    0.672410    3.809532
H       4.270645   -0.056566    4.128095
