27
7009890
Fe      6.375297    1.791933    8.068636
S       7.982051    1.809494    9.558345
S      10.323517    1.794128    6.002748
S      10.986274    1.743641    9.179224
O       4.878342   -0.396581    6.786693
O       4.682013    2.044370   10.407619
O       4.954318    4.057277    7.010524
N       7.843254    1.858518    6.774912
C       5.498556    0.400972    7.284691
C       5.310371    1.928030    9.461959
C       5.506430    3.149237    7.388574
C       9.103333    1.837299    7.222575
C       9.079529    1.794128    4.797915
C       7.814594    1.791202    5.374093
C       6.683659    1.861445    4.565516
H       5.838451    1.967541    4.938211
C       6.845080    1.771446    3.211818
H       6.110048    1.598765    2.668840
C       8.108071    1.937542    2.636711
H       8.184889    2.065589    1.718896
C       9.239879    1.912664    3.421727
H      10.086511    1.973395    3.042606
C       9.352519    1.807299    8.589124
C      10.769220    1.891445   10.906688
H      11.576736    1.629496   11.354350
H      10.048315    1.323645   11.188351
H      10.563370    2.803143   11.126235
