29
7009055
Zn      1.910774   -8.902856   10.981577
I       3.058063   -9.862870   13.044061
S       1.684578  -10.305762    9.189312
S       0.852347   -6.871833   10.897616
N       2.874470   -8.161258    7.899169
N       1.645382   -9.437169    6.639753
N       3.022609   -6.102312    9.346992
N       1.666522   -4.488543    9.913476
C       2.083542   -9.251347    7.890318
C       2.916995   -7.678320    6.599290
H       3.393363   -6.931057    6.316048
C       2.168529   -8.453406    5.827961
H       2.023536   -8.353042    4.915010
C       0.736139  -10.499434    6.198451
H       0.578517  -10.413976    5.255154
H      -0.095147  -10.425900    6.670100
H       1.132785  -11.355010    6.379271
C       1.895621   -5.822088   10.015898
C       3.500208   -4.916828    8.820971
H       4.271012   -4.820439    8.310123
C       2.664326   -3.930083    9.169965
H       2.749433   -3.031779    8.946153
C       0.532795   -3.765129   10.490076
H       0.604868   -2.832045   10.273851
H       0.536226   -3.872449   11.444754
H      -0.285762   -4.114912   10.132230
B       3.647884   -7.485542    9.078923
H       3.537703   -8.153308    9.969113
H       4.699240   -7.304689    8.767863
