26
7009889
Cr      2.081425    5.769018    2.947995
S       0.281956    6.566576    1.669004
S      -1.674584    6.607694    5.453144
S      -2.484738    7.422897    2.532832
N       0.627283    6.013229    4.495097
O       4.523328    4.776191    4.371224
O       3.727685    5.458551    0.473909
O       1.377600    2.992465    2.889437
O       3.382156    8.503288    3.140937
C       3.555477    5.178882    3.888869
C       3.074883    5.571751    1.424542
C       1.587771    3.942010    2.877238
C       2.837797    7.507797    3.104339
C      -0.569228    6.483008    4.146000
C      -0.483554    6.006238    6.495838
H      -0.607851    5.879720    7.418318
C       0.669566    5.731562    5.842688
C       1.889219    5.172223    6.484577
H       2.576042    5.060688    5.819227
H       1.683252    4.321561    6.874965
H       2.198157    5.773180    7.164003
C      -0.894021    6.813617    2.803101
C      -2.483324    7.837408    0.812684
H      -3.340758    8.190324    0.567752
H      -2.302572    7.050004    0.293730
H      -1.804771    8.494964    0.641889
