25
7009589
Br     14.010015    6.803149   -1.385139
Br      8.952523    2.730035    1.601004
Cr     10.058013    4.189331   -3.081360
O       8.596676    1.644841   -3.745602
O       8.098563    5.829658   -4.654347
O      11.683152    3.857604   -5.588938
C       9.146370    2.632749   -3.507818
C       8.834250    5.192784   -4.043348
C      11.048682    3.987988   -4.624365
C      10.430573    5.926193   -1.760629
H      10.261611    6.847655   -1.916739
C       9.423236    5.117563   -1.165137
H       8.590308    5.504953   -0.920117
C       9.651926    3.758563   -0.939760
C      10.912607    3.190641   -1.311943
H      11.074303    2.265418   -1.166171
C      11.900785    3.981719   -1.884690
H      12.736236    3.594329   -2.120405
C      11.672413    5.378330   -2.122473
C      12.725823    6.227078   -2.762420
H      12.308144    7.019410   -3.185260
H      13.193407    5.710558   -3.464397
C       8.597355    2.898531   -0.332896
H       8.604700    2.004650   -0.756771
H       7.705379    3.304727   -0.477634
