22
7009591
Cr     -2.674322   -2.097164    7.017642
Br      0.508632    1.742759    7.537723
O      -4.731047   -1.292345    5.015468
O      -4.137579   -4.657565    7.436267
O      -4.362994   -0.911615    9.177828
C      -3.948459   -1.610524    5.786417
C      -3.577649   -3.673925    7.282459
C      -3.707394   -1.354093    8.349560
C      -0.854698   -1.604856    8.169003
C      -0.764570   -2.914000    7.750569
C      -0.912434   -3.258827    6.405469
C      -1.125717   -2.265332    5.465427
C      -1.204330   -0.936848    5.866664
C      -1.078781   -0.589570    7.210810
C      -1.216858    0.827014    7.642618
H      -0.462174   -1.296236    9.423347
H      -0.215540   -3.424439    8.278865
H      -0.814961   -4.192924    6.091166
H      -0.975847   -2.510134    4.831090
H      -1.197125   -0.134823    5.400465
H      -1.883316    1.309095    6.842053
H      -1.466392    0.873656    8.371532
