30
7010352
I       0.000000    0.000000    6.556497
Cu      0.000000    0.000000    9.130443
S       0.533410    2.298648   10.064931
C       1.610915    1.810387   11.441795
H       1.954648    2.620742   11.895002
H       1.089082    1.288554   12.100777
C       2.776579    0.976879   10.944435
H       3.340266    0.727539   11.719218
H       3.328689    1.534332   10.340437
S      -2.298648    0.533410   10.064931
C      -1.810386    1.610915   11.441795
H      -2.620741    1.954648   11.895002
H      -1.288553    1.089082   12.100777
C      -0.976878    2.776579   10.944435
H      -0.727538    3.340266   11.719218
H      -1.534331    3.328689   10.340437
S       2.298648   -0.533409   10.064931
C       1.810387   -1.610914   11.441795
H       2.620742   -1.954647   11.895002
H       1.288554   -1.089081   12.100777
C       0.976879   -2.776579   10.944435
H       0.727539   -3.340265   11.719218
H       1.534332   -3.328689   10.340437
S      -0.533409   -2.298648   10.064931
C      -1.610914   -1.810386   11.441795
H      -1.954647   -2.620741   11.895002
H      -1.089081   -1.288553   12.100777
C      -2.776579   -0.976878   10.944435
H      -3.340265   -0.727538   11.719218
H      -3.328689   -1.534331   10.340437
