28
7010204
Ti      3.497767   12.013783    1.581585
Cl      2.358645   12.634917   -0.296946
Cl      2.149755   10.392600    2.423386
N       4.981031   11.124051    0.904694
C       3.593946   14.365218    2.139480
C       4.913405   13.777659    2.188382
H       5.624980   13.980307    1.623288
C       4.929935   12.856750    3.228917
H       5.676076   12.383106    3.519614
C       3.639782   12.757225    3.772277
H       3.373035   12.162471    4.435176
C       2.810987   13.716505    3.136546
C       1.463727   14.107412    3.291403
H       0.901680   13.686527    3.901325
C       1.035429   15.105063    2.523907
H       0.156291   15.385652    2.640730
C       1.772553   15.750178    1.581178
H       1.385582   16.430068    1.078570
C       3.062706   15.410833    1.369267
H       3.579670   15.854500    0.736253
C       4.551230   10.001693    0.070637
H       3.591692    9.974114    0.040752
H       4.883349    9.181509    0.441480
H       4.895371   10.113209   -0.819115
C       6.442504   11.178010    0.960389
H       6.713759   11.922651    1.502390
H       6.793407   11.282332    0.073354
H       6.778379   10.365020    1.344816
