30
7010088
Re      0.614163    0.310839    0.028685
Cl      2.521452    1.472745   -1.039683
O      -0.065083   -1.316457   -2.488460
O      -1.898053   -0.909612    1.377368
O       2.104101   -2.212011    0.928331
O      -0.401841    2.230203   -0.369154
O      -0.930447    4.302465    0.511974
N       1.072567    1.610013    1.702949
C       0.186108   -0.702882   -1.585546
C      -0.936531   -0.438268    0.875076
C       1.483451   -1.215572    0.626956
C       0.068645    3.382103    0.307427
H       0.782993    3.812101   -0.251751
C       0.708918    2.894220    1.629119
C       0.863154    3.795563    2.700270
H       0.550096    4.688636    2.638543
C       1.479240    3.324218    3.854935
H       1.626001    3.911332    4.589612
C       1.897525    1.984608    3.925135
H       2.344362    1.645571    4.693701
C       1.634951    1.174226    2.857614
H       1.858875    0.256345    2.926604
C      -0.714033    2.546914   -1.765887
H      -1.385141    1.910185   -2.105993
H       0.097584    2.480760   -2.311751
H      -1.074080    3.456526   -1.827614
C      -2.101129    3.828640    1.227285
H      -2.564011    3.158834    0.677791
H      -2.703722    4.572868    1.403995
H      -1.820955    3.415180    2.069683
