21
7010662
Rh     -0.317256    3.319177    7.006742
S      -0.560347    5.052028    8.591934
O      -0.041518    5.013187    4.576377
O       0.016289    0.933527    5.204013
N      -0.572720    2.535390    8.913967
N      -1.021327    3.727411   10.929413
C      -0.124562    4.370299    5.503044
C      -0.127289    1.800086    5.924754
C      -0.743215    3.657765    9.634708
C      -0.678224    1.336671    9.549271
C      -0.943186    1.338011   10.896553
C      -1.122174    2.532711   11.562526
C      -0.504506    0.105809    8.747474
C      -1.465402    2.570213   13.010580
H      -1.123847    0.107148    8.027828
H       0.380081    0.073664    8.405724
H      -0.659590   -0.653603    9.297340
H      -1.003162    0.515650   11.370840
H      -1.009219    1.869733   13.461865
H      -1.204171    3.407306   13.375332
H      -2.402607    2.456368   13.115734
