22
7011499
Rh      7.132855    6.362025    2.620369
I       6.984774    7.592026    4.974962
I       7.080950    8.653519    1.282398
O       7.239064    4.945877   -0.011214
O       7.204356    3.833715    4.194085
C       7.201852    5.486722    0.975629
C       7.182758    4.788393    3.584784
N      10.611550    6.915406    3.604720
C      10.756368    6.172695    2.501997
H      10.793267    6.584981    1.669660
C      10.850781    4.808901    2.590464
H      10.947750    4.293476    1.822919
C      10.801180    4.209766    3.827757
H      10.895389    3.287837    3.907502
C      10.611937    4.986129    4.946678
H      10.542272    4.585468    5.782754
C      10.523518    6.358231    4.829553
H      10.405147    6.889927    5.583391
C      10.544982    8.389810    3.478873
H      10.670584    8.791098    4.341115
H       9.686755    8.642695    3.129989
H      11.233349    8.691023    2.882032
