27
7012834
Pt      6.949842    7.192925    4.556806
Cl      5.722273    6.980761    2.627818
N       6.038076    5.527636    5.301523
H       5.773074    5.008957    4.628350
H       5.333145    5.767217    5.787185
H       6.612465    5.078938    5.812808
N       7.830929    8.869411    3.795620
H       7.202762    9.429255    3.505620
H       8.362446    8.643827    3.118954
H       8.311199    9.266241    4.430359
N       8.008409    7.418756    6.264695
C       9.317441    7.060621    6.352044
N       9.874328    6.476901    5.292205
H       9.408542    6.337763    4.582929
H      10.701439    6.238967    5.316663
C      10.020817    7.338896    7.510879
H      10.917457    7.097669    7.572606
C       9.413600    7.964604    8.567223
H       9.899955    8.159726    9.335898
C       8.093899    8.302157    8.489191
H       7.664982    8.715454    9.203127
C       7.411059    8.014826    7.326863
H       6.510418    8.237940    7.268630
N       8.595747   11.228989    6.397466
O       7.390174   11.203466    6.106301
O       9.390422   10.568702    5.704494
O       9.031678   11.825058    7.361802
