19
7012390
Ru      2.901588    1.394141    2.369403
I       1.759776   -1.044390    2.132594
C       4.839056    0.498666    3.241925
C       4.420148    1.595389    4.029597
H       4.225140    1.567170    4.989604
C       4.390508    2.759637    3.208471
H       4.230447    3.678560    3.510564
C       4.823482    2.361351    1.913932
H       4.992448    2.964551    1.159713
C       5.067507    0.989609    1.924069
H       5.406458    0.464580    1.169850
C       5.021061   -0.878155    3.769067
H       5.925519   -0.987869    4.071160
H       4.835650   -1.513991    3.074658
H       4.419350   -1.021455    4.504025
C       1.430564    2.046897    3.331133
O       0.588989    2.499336    3.939374
C       2.078153    1.871685    0.746109
O       1.567995    2.177563   -0.224035
