19
7012389
Ru      2.309124    1.755464    2.656731
Br      3.278587    4.096636    2.718259
C       0.303285    2.544715    1.845853
C       0.159252    2.054553    3.171761
H      -0.184698    2.558739    3.938409
C       0.470542    0.663945    3.155052
H       0.357657    0.041014    3.903026
C       0.870122    0.322082    1.855682
H       1.079110   -0.582138    1.540177
C       0.775316    1.480928    1.040872
H       0.943443    1.521018    0.075682
C       0.028392    3.923429    1.360309
H      -0.887747    3.987169    1.079205
H       0.605013    4.121637    0.618233
H       0.191387    4.550686    2.067984
C       3.785957    1.074541    1.703335
O       4.588403    0.584482    1.081171
C       3.178734    1.395701    4.285367
O       3.709246    1.147196    5.252523
