28
7012301
Nb      7.223993   -0.025416    0.090576
Cl      9.401660   -0.719258   -0.939150
Cl      7.260761    1.582168   -1.831501
S       5.739770    1.461939    1.327746
S       8.909449    1.852404    0.762994
S       8.197661   -1.010051    2.114008
C       6.697229    2.802029    2.082326
H       6.112902    3.562028    2.229562
H       7.022997    2.507997    2.947333
C       7.858767    3.238094    1.250185
H       8.387746    3.877241    1.752362
H       7.529836    3.682880    0.454852
C       9.635470    1.330621    2.347876
H      10.500496    1.752981    2.470133
H       9.059050    1.599736    3.080108
C       9.794401   -0.190623    2.342617
H      10.187379   -0.477180    3.181332
H      10.395333   -0.448524    1.626160
C       6.493228   -2.336062    0.084134
H       7.016672   -2.982685    0.499548
C       5.484295   -1.586031    0.698053
H       5.220992   -1.638359    1.588037
C       4.941875   -0.735081   -0.286583
H       4.254757   -0.120852   -0.163010
C       5.625040   -0.981769   -1.488127
H       5.457411   -0.561901   -2.300550
C       6.586531   -1.948588   -1.269904
H       7.185091   -2.283735   -1.899597
