23
7012985
Au      9.337451    0.205422    0.676776
C       7.577135    0.608808    1.415909
C       6.909639    1.800217    1.672210
H       7.345796    2.598521    1.479984
C       5.662390    1.860694    2.185594
H       5.267310    2.689237    2.337968
C       4.976184    0.725731    2.480966
H       4.131948    0.796288    2.863074
C       5.487952   -0.517083    2.236386
H       5.025490   -1.297245    2.442677
C       6.781118   -0.527163    1.643298
C       7.459543   -1.857670    1.357303
C       6.931939   -3.140803    1.494831
H       6.084873   -3.249663    1.861310
C       7.634815   -4.234440    1.103346
H       7.277737   -5.089190    1.186957
C       8.894430   -4.036880    0.575897
H       9.411528   -4.765635    0.318032
C       9.383480   -2.761810    0.432899
H      10.210296   -2.631784    0.026568
N       8.698270   -1.716556    0.861891
Cl     11.432518   -0.344722   -0.261771
Cl      9.854785    2.423136    0.527449
