30
7013290
Pt      0.727422    9.126067   15.193122
Cl      2.636801    9.892928   14.176746
N      -0.940325    8.541389   15.990255
N       0.235406    7.564806   13.760819
C       0.693895   10.416173   16.732226
C       1.653675   11.348269   17.176350
H       2.474028   11.403347   16.746325
C       1.374820   12.198806   18.269038
H       1.983762   12.857629   18.519299
C       0.188065   12.032512   18.961662
H       0.045395   12.563171   19.714206
C      -0.823595   11.109949   18.591558
H      -1.632923   11.035805   19.037445
C      -0.466920   10.295424   17.453047
C      -1.381305    9.262704   17.021259
H      -2.205548    9.114416   17.424849
C      -1.673130    7.444058   15.398089
H      -2.381940    7.774528   14.821784
H      -2.066769    6.881622   16.083662
C      -0.629045    6.666605   14.585622
H      -0.067444    6.158189   15.191888
H      -1.080401    6.037440   14.002268
C       1.433185    6.744986   13.256773
H       1.924100    6.407101   14.007555
H       2.000623    7.305302   12.724528
H       1.114123    6.012019   12.724528
C      -0.440980    8.075341   12.617022
H       0.147858    8.660019   12.132362
H      -1.217234    8.563632   12.897243
H      -0.705568    7.347670   12.051291
