24
7013021
Au      2.309260    6.321043    8.523057
S       1.471641    5.249709    6.663763
S       1.425339    8.180694    5.945691
C       1.102000    6.536932    5.637946
C       3.594080    6.512344   11.232699
C       3.124793    8.603621   10.310813
C       4.127161    7.118458   12.370546
C       3.077522    7.238943   10.196084
C       4.152263    8.468383   12.465030
N       0.539464    6.445954    4.402916
H       0.356561    5.687389    4.042530
C       0.285595    7.613922    3.776627
C      -0.334912    7.596710    2.445764
H      -0.410182    8.496660    2.117773
H      -1.203854    7.199601    2.501104
H       0.215377    7.084033    1.845121
C       3.660017    9.215882   11.406818
C       0.723798    8.636816    4.428561
H       0.663959    9.513407    4.120816
F       3.585512    5.172254   11.224601
F       2.634098    9.403987    9.353834
F       4.629890    6.364811   13.341024
F       3.631523   10.574413   11.466208
F       4.660436    9.106462   13.519192
