23
7013020
Au      1.040483   11.264034    4.919238
S      -0.456006   14.256730    1.886266
N       0.615391   12.858174    3.651788
C      -0.274588   12.798389    2.746204
C       0.711047   14.991239    2.900816
C       1.201821   14.143565    3.776950
C       2.212362   14.363490    4.807697
C       1.374364    9.851813    6.294917
C       2.144456   10.065333    7.325664
C       2.433171    9.162143    8.341685
C       1.876797    7.878888    8.216523
C       1.135316    7.592771    7.141602
C       0.883063    8.545070    6.206567
F       2.663116   11.314425    7.561263
F       3.164586    9.476018    9.453419
F       2.148557    6.962887    9.173645
F       0.628024    6.333003    7.023802
F       0.090910    8.167140    5.190546
H      -0.757643   12.050428    2.550435
H       0.957468   15.870301    2.822700
H       2.901135   13.717379    4.788260
H       1.783654   14.312459    5.712766
H       2.568501   15.248317    4.730023
