21
7014035
Tc      6.395031    0.958408    5.903272
O       4.564215    0.219556    4.897101
O       2.753280    0.841508    3.726924
O       4.947190    1.401779    7.498415
H       4.579821    0.844445    7.708377
H       5.240400    1.725605    8.164564
O       7.364389   -1.612523    7.273246
O       8.782297    2.394552    7.151596
O       8.136841    0.330435    3.477543
N       5.501000    2.725722    5.057818
N       4.575296    4.658399    4.603972
H       4.461391    5.492564    4.585256
C       5.665700    4.031307    5.094079
H       6.373626    4.486573    5.392355
C       3.681032    3.712621    4.214459
H       2.928378    3.877104    3.977008
C       4.260008    2.499557    4.501037
C       3.811474    1.105122    4.352484
C       6.986817   -0.662339    6.745707
C       7.888699    1.840890    6.704768
C       7.496915    0.577160    4.384067
