30
7014625
C       1.985365    1.776201    6.880259
C       1.860698    0.745520    6.107019
C       1.072463    3.438711    9.039019
C       1.249318    2.534768   10.077370
H       1.193493    1.624302    9.897473
C       1.505768    2.935485   11.344536
H       1.596421    2.309248   12.024672
C       1.638704    4.286740   11.623850
H       1.815328    4.567242   12.493350
C       1.517855    5.190683   10.621794
H       1.626792    6.101149   10.798534
C       1.234516    4.762009    9.327800
H       1.153427    5.391042    8.646086
C       0.703674    4.320288    6.318476
C       1.882025    4.920432    5.993400
H       2.673864    4.534625    6.290071
C       1.944486    6.103945    5.221738
H       2.761917    6.520504    5.052887
C       0.751429    6.623945    4.719921
H       0.756227    7.380648    4.178652
C      -0.441777    5.992117    5.041841
H      -1.239188    6.348103    4.730967
C      -0.458051    4.855199    5.819815
H      -1.269769    4.437708    6.007602
P       0.623925    2.862797    7.385232
Au     -1.378209    1.894460    7.347359
F       0.686402    0.388602    5.543658
F       2.779737   -0.087599    5.742491
Cl     -3.474909    0.993405    7.216381
Cl      3.598638    2.083728    7.453087
