30
7014624
C       8.167281    1.349460    9.001405
C       7.870790    0.887250   10.171341
H       7.092882    0.385445   10.263948
C       8.567640    3.843941    7.833013
C       8.776326    4.334434    6.561210
H       9.401276    3.927980    6.004024
C       8.061268    5.424507    6.112065
H       8.203937    5.755003    5.255450
C       7.137523    6.021663    6.934725
H       6.659080    6.758614    6.629121
C       6.908718    5.545716    8.201898
H       6.273397    5.948130    8.749823
C       7.630944    4.463723    8.651042
H       7.491669    4.143732    9.512288
C      10.363921    1.659755    7.115308
C       9.709323    0.962399    6.124413
H       8.788388    0.845231    6.179977
C      10.394724    0.434736    5.054802
H       9.947890   -0.033130    4.386487
C      11.769737    0.619782    4.996150
H      12.251188    0.240802    4.296967
C      12.405810    1.321986    5.914504
H      13.317640    1.484406    5.818810
C      11.732030    1.821367    7.021158
H      12.198982    2.260952    7.694103
F       7.313056    1.030277    8.013597
F       8.601699    1.088457   11.223975
P       9.518604    2.458038    8.504106
Cl     12.254279    3.390620   11.941525
Au     10.872701    2.944247   10.192903
