27
7014755
Cr      6.698220    1.698312    3.629633
N       6.349832    2.674635    4.910313
Cl      3.623750    2.831578    5.928788
Cl      4.686256    8.028540    6.626404
Cl      8.552622    4.729651    4.878227
Cl      8.490638    0.590273    4.125006
C       6.030262    3.912845    5.400314
C       4.728403    4.144526    5.878844
C       4.315395    5.405904    6.262134
H       3.428361    5.555210    6.566732
C       5.223617    6.445897    6.193025
C       6.531389    6.261410    5.775472
H       7.142279    6.989062    5.753695
C       6.925681    4.995742    5.391748
N       7.046607    2.674635    2.348953
Cl      9.772689    2.831578    1.330478
Cl      8.710183    8.028540    0.632863
Cl      4.843817    4.729651    2.381039
Cl      4.905801    0.590273    3.134261
C       7.366177    3.912845    1.858953
C       8.668036    4.144526    1.380422
C       9.081044    5.405904    0.997133
H       9.968078    5.555210    0.692534
C       8.172822    6.445897    1.066241
C       6.865050    6.261410    1.483794
H       6.254160    6.989062    1.505572
C       6.470758    4.995742    1.867519
