29
7014628
C       2.986670    6.876364    7.505562
C       5.554477    6.153330    6.391675
C       6.647161    6.735050    5.846509
H       6.557015    7.499243    5.290126
C       7.921959    6.179398    6.120213
H       8.693212    6.531997    5.690587
C       8.049439    5.128461    7.010875
H       8.907196    4.788210    7.225127
C       6.893015    4.561834    7.594180
H       6.980430    3.834684    8.203285
C       5.645534    5.061234    7.291310
H       4.867907    4.682568    7.678310
C       3.077727    5.822683    4.858256
C       3.478377    4.428751    4.723647
H       4.230508    4.081640    5.194778
C       2.713499    3.615167    3.858786
H       2.967548    2.708289    3.732029
C       1.602603    4.087128    3.196959
H       1.075383    3.513641    2.651793
C       1.283904    5.457736    3.337176
H       0.549074    5.811707    2.844733
C       2.003254    6.306992    4.184090
H       1.741920    7.215243    4.280560
F       2.658864    5.647070    7.939676
F       3.566703    7.521194    8.505033
F       1.768327    7.508847    7.313745
P       4.001045    6.925755    5.937370
Cl      4.258736   11.214565    4.636151
Au      4.118326    9.037918    5.276104
