22
7014626
Au     -0.571156    0.719367   11.015004
Cl     -2.686864   -0.113661   11.117331
P       1.497038    1.476133   10.778044
C       2.792019    0.190658   10.726626
H       3.647434    0.620372   10.569330
H       2.837010   -0.236856   11.595987
C       2.599473   -0.857961    9.701660
H       3.304524   -1.503265    9.767623
H       2.612848   -0.455379    8.828917
H       1.753595   -1.288408    9.840352
C       2.078386    2.647213   11.963013
H       2.189566    2.185234   12.810386
H       2.955784    2.947866   11.680555
C       1.217347    3.849825   12.194730
H       1.629427    4.418133   12.852670
H       0.353840    3.575571   12.505941
H       1.120325    4.339669   11.371036
C       1.765342    2.353893    9.226387
C       0.952312    2.566550    8.252162
F       2.978816    2.911934    9.094461
F       1.257118    3.251452    7.174763
F      -0.254734    2.106038    8.164211
