27
7014362
Pt      0.035744    0.171531    4.129186
Cl      0.059739   -1.937869    3.181600
Cl      0.014334    2.278295    5.068364
O      -1.459512    0.734296    2.909180
H      -2.126928    0.240129    3.036982
O       1.527157   -0.388745    5.364326
H       2.218348    0.053443    5.187758
N       1.490040    0.721851    2.759517
H       1.786765    1.561569    2.991579
H       2.200860    0.147152    2.863777
C       1.139602    0.751867    1.304927
H       0.414598    0.081263    1.145174
C       2.352961    0.336766    0.507845
H       2.129365    0.334570   -0.445626
H       2.624098   -0.568110    0.778584
H       3.083124    0.961247    0.676006
C       0.629587    2.082824    0.914794
H      -0.155277    2.303919    1.461316
H       0.376623    2.071843   -0.031951
H       1.327465    2.754892    1.059412
N      -1.404852   -0.410708    5.503900
H      -2.126373    0.153741    5.418138
H      -1.690571   -1.255551    5.276883
C      -1.010289   -0.431939    6.921494
H      -1.768222   -0.728439    7.468017
H      -0.743273    0.470740    7.198960
H      -0.258013   -1.046171    7.042570
