17
7014184
Au     -0.701134    4.777933    8.047230
I       0.560482    4.298790    5.797412
I      -1.893858    5.095228   10.355591
I      -2.641179    3.116385    7.314920
P       1.001345    6.159259    8.847352
C       2.380046    6.519747    7.747616
H       3.017557    7.107353    8.204987
H       2.046548    6.964718    6.941200
H       2.826386    5.683444    7.499673
C       1.780795    5.438405   10.294448
H       2.490698    6.033326   10.614607
H       2.166230    4.567968   10.058541
H       1.111691    5.317714   10.999761
C       0.376732    7.775420    9.319526
H       1.115644    8.327672    9.651722
H      -0.296181    7.671796   10.024840
H      -0.030251    8.209419    8.540793
