26
7014651
Co      2.710727    6.755593    1.442253
S       3.793461    7.122462    3.199428
S       4.084878    5.277924    0.826375
O       5.944503    6.696525    5.264585
O       7.177452    5.332299    3.987034
C       5.145266    6.078335    3.117120
C       5.268611    5.253002    2.051193
C       6.107440    6.097754    4.232484
C       8.144978    5.188270    5.057297
C       7.754888    4.079734    5.959302
C       1.797104    8.476655    0.899403
C       1.016244    7.798588    1.847375
C       0.701469    6.558970    1.291428
C       1.261863    6.497475    0.040764
C       1.930382    7.648086   -0.210757
H       6.000638    4.649376    1.995685
H       9.000399    5.007020    4.685221
H       8.184317    5.990947    5.564675
H       7.192621    4.406631    6.651417
H       8.520184    3.665450    6.341787
H       7.278235    3.443742    5.438915
H       2.166634    9.347301    0.991338
H       0.752013    8.131957    2.697341
H       0.178146    5.885757    1.710340
H       1.196426    5.757911   -0.553345
H       2.410073    7.851992   -1.004348
