20
7015631
Pt      0.048899    5.426778    0.483683
I      -0.993899    3.247963   -0.470895
I      -2.299431    6.232888    1.187435
N       1.929155    4.786214    0.011701
N       3.043023    5.183253    0.677006
N       0.761650    7.225552    1.250372
H       0.362946    7.909491    0.780647
H       0.475584    7.292858    2.122122
C       2.363617    3.867044   -0.843332
H       1.807577    3.397260   -1.452638
C       3.724217    3.682802   -0.734677
H       4.260590    3.080446   -1.236163
C       4.151527    4.549623    0.249907
H       5.040118    4.673358    0.561664
C       2.975082    6.207802    1.715918
H       3.894068    6.465469    1.981706
H       2.519165    5.837278    2.512445
C       2.218796    7.453305    1.231984
H       2.440497    8.220867    1.817051
H       2.506650    7.676299    0.311757
