30
7015770
Mo      1.154725    0.256792    8.400097
O       2.078149   -1.069180    8.866632
O       1.516758    1.548261    9.772778
O       2.447026    1.713323    8.642272
O      -0.566062   -0.080668    9.201304
O      -0.499686   -0.613527    7.831427
N       1.865477   -0.030350    6.364258
N       2.864438   -0.905049    6.075535
H       3.327839   -1.216671    6.685162
N       0.016820    2.028007    7.381464
N      -1.323213    1.991667    7.201147
H      -1.749401    1.315176    7.431644
C       3.000414   -1.083822    4.755008
C       2.037837   -0.300307    4.153343
H       1.871509   -0.214315    3.222314
C       1.361460    0.337180    5.184733
H       0.643294    0.947779    5.067784
C       4.016358   -1.993930    4.160394
H       4.912918   -1.697216    4.420833
H       3.938623   -1.976758    3.183331
H       3.867810   -2.907232    4.483869
C      -1.807829    3.153761    6.740319
C      -0.724279    3.983866    6.574849
H      -0.727351    4.874671    6.244738
C       0.377547    3.243879    6.993708
H       1.271211    3.567482    7.001173
C      -3.269942    3.359157    6.498541
H      -3.764408    2.569120    6.799623
H      -3.426587    3.498262    5.541385
H      -3.576656    4.145201    6.997026
