20
7015632
Pt      8.517909    1.292232    6.433129
Cl      9.368785    3.266885    7.281124
Cl     10.622114    0.592158    5.846371
N       6.645527    1.897285    6.909900
N       5.550792    1.471006    6.253928
N       7.849233   -0.476982    5.666184
H       8.135909   -0.527684    4.792377
H       8.266674   -1.155522    6.125693
C       6.212998    2.771125    7.814944
H       6.766233    3.219938    8.442967
C       4.866792    2.931371    7.713836
H       4.321940    3.505376    8.239928
C       4.447675    2.103226    6.703573
H       3.559146    1.996812    6.385451
C       5.629586    0.460707    5.183658
H       6.087263    0.845672    4.395341
H       4.717587    0.191544    4.910747
C       6.395733   -0.754908    5.678514
H       6.107380   -0.978375    6.599177
H       6.201263   -1.531724    5.096524
