25
7016355
Pt      3.633733    4.016134    5.394300
Cl      3.164381    5.080999    7.378267
Cl      3.374263    1.893554    6.370559
O       5.590714    4.001604    5.833065
H       5.724485    3.503422    6.496050
O       1.704430    4.107698    4.898686
H       1.286971    4.580510    5.523117
N       3.888590    5.842111    4.528260
H       3.162074    6.354132    4.672651
H       4.601268    6.257263    4.890370
N       4.121537    3.240492    3.500141
C       4.096166    5.671438    3.076798
H       3.238186    5.646067    2.627752
H       4.598962    6.423324    2.730564
C       4.827295    4.423675    2.819768
H       5.733710    4.502093    3.163734
H       4.880342    4.269146    1.865734
C       5.060242    2.052696    3.575738
H       5.830579    2.287949    4.096601
H       5.337010    1.805911    2.688985
H       4.608187    1.312342    3.986986
C       2.945273    2.871468    2.691253
H       2.490912    2.135726    3.111573
H       3.228960    2.615458    1.813572
H       2.350222    3.623354    2.634555
