27
7016948
Au      0.832412    3.728422    2.936165
Br     -0.795219    5.453911    3.247672
C       3.510538    2.752105    4.788390
H       4.326564    3.258288    4.791875
H       3.559955    2.060889    5.452283
H       2.772538    3.332727    4.985293
N       2.474737    1.590861    1.576963
C       0.658023    0.236077    0.555858
C       2.256914    2.385229    2.645115
C       3.617174    0.847538    1.732045
H       3.959190    0.225443    1.132625
C       4.140601    1.186766    2.901263
H       4.918914    0.844348    3.279385
N       3.314822    2.138518    3.448408
C       1.531268    1.438794    0.451308
H       2.036489    1.387750   -0.374638
H       0.970128    2.228907    0.404260
C      -0.109887   -0.118039   -0.559342
H      -0.066322    0.389208   -1.338240
C      -0.944770   -1.240999   -0.493127
H      -1.464946   -1.468569   -1.230205
C      -1.007841   -2.018352    0.655180
H      -1.562479   -2.763803    0.690030
C      -0.228227   -1.665300    1.751213
H      -0.245783   -2.189561    2.519655
C       0.566992   -0.544466    1.705908
H       1.055307   -0.303072    2.460410
