29
7016951
Au     -1.764635    2.557494    2.471490
I      -0.751625    0.184737    2.053368
I      -2.936618    4.875946    2.703297
Br      0.250628    3.322184    3.687723
N      -3.534698    1.995315    0.139374
N      -4.584435    1.636913    1.981340
C      -3.402573    1.985415    1.452834
C      -2.511575    2.368024   -0.842934
C      -4.820516    1.616069   -0.195124
C      -5.469166    1.382553    0.943283
C      -4.886401    1.498844    3.405184
C      -4.106706    0.380943    4.058569
C      -3.307668    0.619115    5.143456
C      -2.642464   -0.457975    5.703181
C      -2.800602   -1.691783    5.161295
C      -3.619497   -1.823532    4.075294
C      -4.266136   -0.819270    3.517798
H      -2.428719    3.344449   -0.873038
H      -1.651884    1.975337   -0.585371
H      -2.770805    2.035530   -1.727122
H      -5.175491    1.536594   -1.072622
H      -6.370308    1.095471    1.030252
H      -5.854975    1.325272    3.514453
H      -4.677737    2.351126    3.864560
H      -3.212857    1.494808    5.500253
H      -2.079503   -0.334776    6.458031
H      -2.353133   -2.445992    5.527013
H      -3.729929   -2.689323    3.700657
H      -4.822084   -0.949482    2.758489
