28
7017738
Cr      7.120612    3.479242    6.842970
C       8.635746    4.240987    5.959200
C       8.285377    2.690658    8.159038
C       7.282705    1.908382    5.758159
C       5.983942    4.287986    5.547820
C       6.938806    5.023882    7.949862
C       5.577081    2.703026    7.691878
C       3.443082    1.822425    8.716841
C       2.251093    2.067311    8.224115
C       1.918693    2.899059    7.059700
C       2.484213    4.151319    6.862145
C       2.206514    4.929266    5.752348
C       1.319862    4.464230    4.823838
C       0.706321    3.252784    4.999314
C       1.006615    2.477310    6.094003
F       3.592313    1.075398    9.816412
F       1.199446    1.487252    8.839210
F       3.300073    4.676341    7.781940
F       2.790291    6.120923    5.598952
F       1.041590    5.200126    3.739607
F      -0.183117    2.802589    4.097996
F       0.414406    1.289364    6.238102
N       4.613962    2.244792    8.177631
O       9.530181    4.681906    5.413018
O       8.980912    2.234898    8.921718
O       7.372422    0.972743    5.130630
O       5.306228    4.788890    4.784327
O       6.815741    5.944061    8.602957
