29
7017377
Pd     -0.274485    2.614925    5.510529
C       0.903042    1.434025    4.228742
H       0.368682    1.444485    3.525892
H       1.351302    0.528215    4.497176
C       1.612256    2.614925    4.491355
C       2.886720    2.614925    5.284681
H       2.961000    3.342920    5.971564
H       3.642536    2.614925    4.702576
N      -1.348805    1.126196    6.485729
C      -1.981263    0.358140    7.022763
C      -2.791705   -0.636577    7.706237
H      -3.580338   -0.816903    7.188995
H      -3.045323   -0.304377    8.570247
H      -2.285311   -1.445531    7.810184
C       0.903042    3.795825    4.228742
H       0.368682    3.785365    3.525892
H       1.351302    4.701635    4.497176
H       2.961000    1.886930    5.971564
N      -1.348805    4.103654    6.485729
C      -1.981263    4.871710    7.022763
C      -2.791705    5.866427    7.706237
H      -3.580338    6.046753    7.188995
H      -3.045323    5.534227    8.570247
H      -2.285311    6.675381    7.810184
Cl      5.250785    2.614925    1.592140
O       4.551943    2.614925    0.334295
O       4.888255    1.451074    2.338398
O       6.661755    2.614925    1.361294
O       4.888255    3.778776    2.338398
