25
7017760
Pd      6.173673    1.691216    2.922102
Cl      4.021388    1.851947    2.114245
Cl      8.265986    1.527286    3.871812
N       6.403511    3.696657    2.673256
C       7.147186    4.241247    1.717772
Cl      8.000970    3.152560    0.693829
C       7.261553    5.622397    1.507775
H       7.795069    5.976603    0.805337
C       6.563287    6.444566    2.368761
H       6.624175    7.387982    2.272163
C       5.775334    5.906315    3.371495
H       5.281655    6.482475    3.942686
C       5.700649    4.544438    3.545792
H       5.178841    4.179379    4.250330
N       5.917612   -0.305351    3.199298
C       6.197691   -1.201770    2.245913
Cl      6.788195   -0.585003    0.745803
C       6.029650   -2.569026    2.420210
H       6.256632   -3.177343    1.726172
C       5.524317   -3.028066    3.627691
H       5.386356   -3.956737    3.772588
C       5.225247   -2.108512    4.613625
H       4.874127   -2.400966    5.447311
C       5.436355   -0.764987    4.385778
H       5.241677   -0.143465    5.076667
