28
7017469
C       4.311121    4.612551    5.268496
C       3.357616    4.637115    4.252839
C       2.740177    3.449085    3.897539
H       2.079913    3.454668    3.214452
C       3.065334    2.262171    4.511239
H       2.627382    1.458240    4.257624
C       4.049513    2.244306    5.513737
C       4.679737    3.410005    5.870234
H       5.366713    3.397723    6.525805
C       3.044407    5.980349    3.659475
H       2.781512    5.877624    2.710811
H       2.291101    6.397946    4.147565
C       5.257955    6.491738    2.719185
H       6.040068    7.073471    2.816085
H       4.864293    6.617910    1.830336
H       5.529334    5.557169    2.826852
C       3.846809    8.257035    3.575734
H       4.637057    8.833185    3.642727
H       3.201306    8.507147    4.268391
H       3.436988    8.366459    2.691670
C       4.417976    0.916704    6.202805
H       5.374350    0.911121    6.410960
H       4.209529    0.168602    5.603459
H       3.902644    0.825145    7.030643
N       4.250867    6.838991    3.761161
Cl      6.027131    8.631086    5.861860
Cl      5.964221    5.780483    7.641114
Au      5.125301    6.436691    5.617695
