21
7018208
Re      2.119806    9.220958    2.382475
Br      1.071786   10.874371    4.158254
O      -0.546058    9.174139    0.810601
O       1.241625    6.861583    4.237353
O       3.398781    7.338454    0.350389
O       3.161826   11.692446    0.780531
N       5.070376    8.621183    3.292088
H       5.146961    8.072513    2.633147
N       4.204983   10.035721    4.577283
H       3.644321   10.613324    4.880605
C       0.417920    9.197714    1.401556
C       1.555673    7.710306    3.564031
C       2.908297    8.042508    1.119153
C       2.760589   10.797643    1.347952
C       3.957623    9.293089    3.511734
C       6.155994    8.859083    4.220357
H       6.916266    9.271656    3.781063
H       6.440663    8.038222    4.653113
C       5.500348    9.802108    5.195693
H       5.405132    9.393821    6.070358
H       6.004159   10.626184    5.281983
