29
7019058
Ag      6.521598    3.855610    5.731326
Cl      4.724910    7.915179    1.206564
Cl      6.677299   10.216993    0.391193
Cl     10.429835    8.355190    3.825212
Cl      9.526136   10.374660    1.615219
C       7.152408    9.055184    1.588055
C       6.916738    5.467439    4.479091
N       6.077948    6.036603    3.553721
N       8.061624    6.207687    4.441778
C       8.446475    9.149112    2.141785
C       7.959140    7.258236    3.523870
C       9.214192    5.899064    5.289536
H       8.993597    5.149311    5.880579
H       9.442087    6.684600    5.829833
H       9.978461    5.656974    4.726852
C       6.668319    7.143621    2.962678
C       6.269483    8.051040    1.967158
C       8.858723    8.251757    3.113424
O       6.040896    2.040715    6.788039
O       4.203432    2.362757    5.595506
C       4.721662    5.526704    3.344766
H       4.587872    4.721599    3.886556
H       4.598546    5.307536    2.397008
H       4.071257    6.210483    3.608944
C       4.855185    1.712523    6.414906
C       4.270123    0.465171    7.044755
H       3.519218    0.712853    7.623858
H       4.958441    0.013978    7.577589
H       3.953959   -0.138657    6.340280
