18
7019205
Mo      0.618803    1.694100    1.863780
O      -0.747673    1.694100    0.883259
O       1.021296   -0.204444    2.033981
O       0.230879    0.310088    3.174107
O       2.725384    1.694100    2.840967
H       2.911740    1.050342    3.342314
N       1.874003    1.694100    0.096919
N       1.316306    1.694100   -1.133582
H       0.458885    1.694100   -1.230969
C       2.255000    1.694100   -2.087193
H       2.101355    1.694100   -3.024443
C       3.486123    1.694100   -1.463918
H       4.341930    1.694100   -1.876838
C       3.205431    1.694100   -0.099724
H       3.857254    1.694100    0.591332
H       2.911740    2.337858    3.342314
O       1.021296    3.592644    2.033981
O       0.230879    3.078112    3.174107
