26
7020011
Ru      2.970385    0.397844    4.590555
Cl      5.140295   -0.562705    3.969266
O       2.189351   -2.044338    6.203161
O       0.286433    1.604096    5.201387
O       3.263097    2.351025    2.162831
H       2.823503    1.611162    1.864393
O       2.214161    0.023319    1.811434
O       1.619358   -1.690307    3.076924
N       3.544181    2.124897    3.492630
N       4.043496    1.626708    6.036176
N       5.209509    2.740389    7.518368
H       5.621914    2.861933    8.214138
C       2.504847   -1.119334    5.618849
C       1.310445    1.144773    4.981172
C       2.173600   -0.485469    2.928989
C       1.059534   -2.300146    1.871148
H       0.425257   -1.679000    1.455037
H       0.594763   -3.129753    2.110277
H       1.781878   -2.499421    1.240227
C       4.184035    3.059795    4.084102
H       4.435047    3.861842    3.642322
C       4.499697    2.811054    5.479695
C       5.221396    3.496504    6.391626
H       5.649579    4.336004    6.270036
C       4.497748    1.624588    7.277889
H       4.343211    0.933485    7.910161
