29
7020990
Br      8.542199    0.816931    2.822346
C       0.759811    2.299296    5.815206
H       1.322682    2.854925    5.327269
C      -0.589497    2.235725    5.507479
H      -0.934361    2.755853    4.818254
C      -1.413507    1.406822    6.219889
H      -2.321935    1.374624    6.025979
C      -0.899361    0.626630    7.215788
H      -1.460154    0.048710    7.681595
C       0.435032    0.685248    7.539323
H       0.778911    0.154387    8.221172
C       1.259929    1.543872    6.835344
C       3.652802   -0.069350    6.684642
H       4.494727   -0.330240    7.086163
H       2.992921   -0.740563    6.918599
C       3.812821   -0.037978    5.177620
H       3.786238   -0.945312    4.835115
H       3.068851    0.448301    4.787692
C       6.013472    0.049536    3.999404
H       6.003288   -0.801658    3.625283
C       7.004824    0.979987    3.864509
C       6.607299    2.082163    4.593781
H       7.103184    2.862355    4.693898
Cl      2.804788    4.767345    7.005648
Cl      5.200849    4.913228    4.792539
N       5.060267    0.591130    4.771884
N       5.400199    1.861728    5.136520
Pd      4.180306    3.232637    6.014913
Se      3.101398    1.644348    7.422240
