29
7020013
Ru      7.284569    6.235894    3.468508
Cl      8.291487    6.842718    5.618569
O       9.692302    4.590304    2.664390
O       6.048524    5.552240    0.822448
O       5.386306    8.683277    3.959529
H       6.205721    8.832342    3.411910
O       7.555447    8.994395    2.609316
O       9.300132    7.754294    2.012605
N       5.594805    7.327433    4.141616
N       6.106296    4.765310    4.542505
H       4.793745    2.302339    5.754964
N       4.951444    3.197739    5.525962
C       8.794100    5.203690    2.976752
C       6.499518    5.813564    1.824944
C       8.102606    7.897630    2.604828
C       9.864579    8.936356    1.355789
H      10.038004    9.651080    2.018045
H       9.240109    9.283911    0.671775
C      11.148350    8.489251    0.716651
H      11.759884    8.160884    1.408824
H      11.560632    9.244960    0.248856
H      10.961785    7.770713    0.077513
C       4.692687    6.708640    4.809855
H       3.918845    7.147418    5.143023
C       4.930223    5.304064    5.021994
C       4.200577    4.322894    5.642094
H       3.353486    4.411101    6.063654
C       6.083558    3.494179    4.861530
H       6.769377    2.870200    4.653470
