29
7020989
Br      8.366967    4.980907    2.772564
C       0.703814    6.400218    5.712203
H       1.246823    6.955154    5.200771
C      -0.644347    6.314149    5.446591
H      -1.014979    6.823183    4.763294
C      -1.435243    5.489531    6.177803
H      -2.347233    5.446087    6.005937
C      -0.888994    4.722292    7.169418
H      -1.430247    4.137026    7.648560
C       0.441439    4.806721    7.462112
H       0.805353    4.291130    8.146451
C       1.239496    5.661668    6.738191
C       3.529733    4.188667    6.659028
H       4.386145    3.999316    7.075673
H       2.904849    3.505037    6.944430
C       3.687793    4.114074    5.157023
H       3.687800    3.184535    4.879954
H       2.933425    4.552614    4.733087
C       5.859048    4.200962    3.965419
H       5.858985    3.341917    3.609187
C       6.822360    5.132961    3.812302
C       6.425209    6.237097    4.513307
H       6.908572    7.027288    4.590386
Cl      2.644402    8.883253    6.948284
Cl      5.053247    9.028012    4.806521
N       4.910986    4.740325    4.720588
N       5.234584    6.003483    5.068486
Pd      4.003211    7.347709    5.958023
S       2.945475    5.789541    7.230978
