18
7021117
C       5.085460    8.927482   11.597702
H       4.401674    8.681991   12.176865
C       5.739986    9.531229    9.348431
H       5.305543    9.592103    8.472467
H       6.479111    8.889560    9.303510
H       6.086013   10.411404    9.603519
C       3.400484    8.849643    9.892299
H       3.346417    9.022285    8.929701
H       2.789211    9.451395   10.367180
H       3.147960    7.920570   10.073588
Cl      5.718868   11.198172   14.098050
Cl      5.424872    8.007889   14.711546
Cl      8.361272    7.493257   13.387973
Cl      8.642673   10.672961   12.786189
N       4.761059    9.081163   10.351137
O       6.262208    9.105113   12.021245
O       7.844139    9.601085   15.494619
W       7.145786    9.366152   13.972222
