24
7022546
Au      1.449640    7.506285    6.527263
Cl     -0.820279    7.481825    6.710742
Cl      1.461145    5.434034    5.589953
Cl      3.685961    7.716641    6.162772
S       1.480884   11.872884    7.534077
S       1.111499    7.157974   11.785121
N       1.439285    9.364266    7.355347
N       1.560052    7.243095    9.262289
C       1.370462    8.546324    9.694848
C       1.430639    9.638218    8.715608
C       1.450219   10.981562    8.986187
H       1.447642   11.352375    9.838421
C       1.126563    8.698954   11.025658
H       0.990115    9.512005   11.456376
C       1.472745   10.461053    6.628279
C       1.409694    6.401671   10.256255
C       1.471049   10.463010    5.124446
H       0.808978    9.846618    4.804168
H       2.337141   10.198842    4.802327
H       1.267484   11.345526    4.806009
C       1.540675    4.926244   10.123726
H       1.571900    4.689471    9.194184
H       0.789166    4.498683   10.539719
H       2.350699    4.637616   10.554444
