27
7023170
Re      0.566453   10.805983    4.205705
N       1.174644    9.667407    2.396375
H       1.263022   10.232620    1.701561
H       1.972869    9.277237    2.541943
C       0.273440    7.894270    4.412315
O       0.946093    8.802886    4.983579
O       0.339793    6.695698    4.731587
N      -1.239931    9.627321    3.734626
H      -1.758635    9.515080    4.461245
H      -1.722937   10.013483    3.080180
C       0.063968   12.417307    3.333395
C      -0.645974    8.335216    3.283242
H      -1.336479    7.665779    3.094859
C       0.183770    8.637197    2.063647
H       0.633787    7.832804    1.763947
H      -0.388668    8.951204    1.345591
C       2.288723   11.584854    4.561553
O       3.312364   12.033817    4.780517
C      -0.107962   11.568820    5.864329
O      -0.510750   11.989723    6.798903
O      -0.274365   13.384715    2.807392
O       1.703189    4.726139    6.217853
H       1.481440    5.414282    5.772585
H       2.493945    4.847734    6.506543
O       5.284608    4.416141    4.466138
H       5.084772    4.291874    5.282056
H       5.574027    5.211180    4.387849
