15
7024384
Nb      7.999000    8.415601    2.839024
Se      7.999000   11.121396    2.057718
Cl      7.999000    6.202149    3.444140
Cl      7.999000    9.295712    4.995633
Cl      5.700727    8.713701    2.799835
Cl      7.999000    8.036061    0.551568
C       6.553581   11.247909    0.760038
H       6.635970   10.521738    0.107960
H       6.604774   12.110014    0.297970
H       5.692888   11.175173    1.222107
C       9.444419   11.247909    0.760038
H       9.362030   10.521738    0.107960
H       9.393226   12.110014    0.297970
H      10.305112   11.175173    1.222107
Cl     10.297273    8.713701    2.799835
