16
7024342
Ni      4.206038    1.451494    3.953219
S       3.311351    0.212996    5.441597
S       4.081023   -1.813455    3.495833
S       4.661680   -0.100858    2.579357
C       3.370548   -1.379057    4.906731
C       2.849158   -2.484957    5.787193
H       2.118126   -2.925105    5.347530
H       2.547280   -2.114481    6.619940
H       3.550933   -3.118638    5.953061
S       5.050616    3.001413    2.596057
S       3.820802    3.319359    5.055557
C       4.500899    4.134960    3.717255
C       4.590363    5.556042    3.600238
H       4.822565    5.933153    4.451163
H       3.744573    5.907718    3.313946
H       5.265792    5.781645    2.954945
