21
7024632
Pd      2.031400    0.000000    0.000000
Cl      2.177675   -1.996404    1.148597
N       3.117248    0.910849    1.450269
N       3.265401    2.248717    1.516191
H       2.941184    2.811919    0.922899
C       3.747599    0.431866    2.521491
H       3.842238   -0.418430    2.723375
C       4.296819    1.468677    3.275467
H       4.791401    1.397561    4.083827
C       3.966398    2.615109    2.594829
H       4.193757    3.503139    2.843682
Cl      1.885125    1.996404   -1.148597
N       0.945552   -0.910849   -1.450269
N       0.797399   -2.248717   -1.516191
H       1.121616   -2.811919   -0.922899
C       0.315201   -0.431866   -2.521491
H       0.220562    0.418430   -2.723375
C      -0.234019   -1.468677   -3.275467
H      -0.728601   -1.397561   -4.083827
C       0.096402   -2.615109   -2.594829
H      -0.130957   -3.503139   -2.843682
