17
7024341
Pt      0.030272    3.097100    6.841282
S      -1.239905    1.191764    6.677638
S      -1.158958    4.130293    5.204984
S      -2.718485    1.599962    5.326075
C      -2.402261    3.141698    4.697224
C      -3.363949    3.655817    3.669664
H      -3.350193    4.635739    3.671032
H      -4.268135    3.341771    3.883112
H      -3.103621    3.326905    2.784402
S       1.300450    5.002436    7.004925
S       1.219502    2.063907    8.477580
S       2.779030    4.594238    8.356489
C       2.462805    3.052502    8.985339
C       3.424494    2.538383   10.012900
H       3.410738    1.558461   10.011532
H       4.328679    2.852429    9.799452
H       3.164166    2.867295   10.898162
