30
7026275
Br      2.099621   14.438198    0.840202
Cu      1.798771   16.642565    1.266506
N       3.480453   18.022224    1.628848
N       0.701017   18.280360    1.454041
H       0.015627   18.268740    0.840202
H       0.333258   18.313561    2.295854
C       4.866613   17.780688    2.051769
C       4.619965   18.137597    0.657339
H       4.720262   17.427100   -0.025778
H       4.883667   19.042319    0.358475
C       5.556437   18.789993    2.959638
H       6.511242   18.575848    3.018444
H       5.158553   18.750152    3.853813
H       5.445150   19.689734    2.591496
C       5.159517   16.348074    2.414272
H       4.728573   15.752120    1.766599
H       4.814411   16.160489    3.311669
H       6.128708   16.198670    2.398966
C       1.559218   19.482229    1.230094
C       2.829495   19.286345    2.020352
H       3.444672   20.043323    1.853600
H       2.620654   19.266424    2.987833
C       0.851177   20.758800    1.711015
H      -0.003563   20.855083    1.240567
H       1.417132   21.537359    1.523319
H       0.686620   20.699039    2.675274
C       1.800608   19.568552   -0.277919
H       0.945855   19.694715   -0.739507
H       2.222033   18.740192   -0.589672
H       2.391117   20.327190   -0.471254
