21
7026098
Zn      0.725351   11.102970    3.699781
Cl      1.061619   10.222103    1.688740
Cl     -1.287633   12.010917    4.026893
N       1.112119    9.617108    4.987535
N       1.156796    8.328834    4.635695
H       1.128075    8.043462    3.825409
N       1.958574   12.640717    4.104972
N       1.518992   13.854689    4.462131
H       0.690886   14.064964    4.560274
C       1.202270    9.611419    6.304371
H       1.199876   10.373778    6.837390
C       1.301195    8.323373    6.778165
H       1.385761    8.055978    7.665322
C       1.251733    7.546221    5.709710
H       1.278060    6.616598    5.708501
C       3.278917   12.743920    4.076327
H       3.858910   12.050969    3.858043
C       2.531388   14.687368    4.644880
H       2.463576   15.581718    4.889030
C       3.677812   14.018312    4.414026
H       4.546605   14.343737    4.470833
