25
7027266
Zn      1.999581    2.022789    1.443996
Cl      3.742062    3.049065    2.317418
Cl      0.077143    3.137532    1.746026
N       2.266191    1.495297   -0.491403
N       1.535525   -0.745240   -0.170171
N       1.696846    0.112521    2.036591
C       2.694529    2.451680   -1.342257
C       2.802706    2.257498   -2.698164
C       2.430091    1.024768   -3.203217
C       2.006714    0.031491   -2.357822
C       1.941255    0.286430   -0.984625
C       1.457238   -0.909005    1.199386
C       1.081887   -2.178389    1.671679
C       0.983153   -2.381108    3.031226
C       1.248273   -1.331715    3.902100
C       1.608420   -0.136877    3.379758
H       0.834502   -1.358139   -0.791704
H       2.931738    3.299900   -0.987355
H       3.123472    2.945817   -3.268737
H       2.465455    0.866325   -4.139612
H       1.759557   -0.819916   -2.701804
H       0.900370   -2.884813    1.062886
H       0.734381   -3.233023    3.370658
H       1.178453   -1.449950    4.842135
H       1.809460    0.571482    3.979451
