29
7027232
W       1.532517    2.494500    0.929633
Se      2.972177    4.243643   -0.444673
O      -1.080324    2.494500   -0.921490
O       0.010289    0.279384    2.539455
O       3.588219    2.494500    3.364510
C      -0.090027    2.494500   -0.364310
C       0.578745    1.117536    1.939415
C       2.932308    2.494500    2.453735
C       4.861458    3.801618   -0.042860
C       5.414481    2.494500   -0.589325
C       2.392146    2.494500   -2.785900
C       2.983752    3.801618   -2.400160
H       5.424770    4.510056   -0.385740
H       4.983638    3.766695    0.902203
H       5.279440    2.494500   -1.541888
H       6.385486    2.494500   -0.454316
H       1.509881    2.494500   -2.403374
H       2.286686    2.494500   -3.745964
H       2.532331    4.493093   -2.898408
H       3.904600    3.789644   -2.725896
Se      2.972177    0.745357   -0.444673
C       4.861458    1.187382   -0.042860
C       2.983752    1.187382   -2.400160
H       5.424770    0.478944   -0.385740
H       4.983638    1.222305    0.902203
H       2.532331    0.495907   -2.898408
H       3.904600    1.199356   -2.725896
O       0.010289    4.709616    2.539455
C       0.578745    3.871464    1.939415
