21
7027224
Au      0.891396    4.769953    1.766060
Cl     -1.584947   -0.034734    3.825989
Cl     -3.457202    1.591653    2.324412
Cl     -1.426025    0.066404    0.982092
S      -0.498319    3.057649    1.061722
P       2.363482    6.339028    2.417312
O      -0.580995    2.654117    3.662939
C      -1.795339    1.026708    2.409729
C      -0.870169    2.280211    2.542444
C       3.554529    6.791597    1.173581
H       4.149593    7.462788    1.524329
H       4.062068    6.017224    0.915735
H       3.088765    7.140984    0.403833
C       1.596346    7.835672    2.955757
H       2.268448    8.471107    3.224979
H       1.096391    8.189146    2.210656
H       1.002370    7.671194    3.693274
C       3.410893    5.798602    3.763424
H       4.025928    6.498398    4.007999
H       2.860576    5.578958    4.519900
H       3.903661    5.020142    3.488514
