29
7027761
Re      9.295487    6.011921    4.571744
Cl      8.449850    6.662766    2.526276
Cl      7.354086    4.689013    4.789671
Cl     10.854567    7.759981    4.379579
O      10.357287    4.763858    4.308601
N       8.101099    7.545476    5.545451
N       7.705796    8.662753    7.384295
N       9.257147    6.813228    7.453959
N       9.691712    5.945950    6.619315
C       7.186419    8.520779    5.261541
H       6.803594    8.684358    4.429526
C       6.934989    9.203645    6.394553
H       6.342910    9.915060    6.486561
C       8.393636    7.658130    6.817789
C       7.766711    9.062442    8.795960
H       7.180569    9.807808    8.943173
H       8.665396    9.313984    9.018094
H       7.494488    8.326336    9.348008
C      10.582115    4.982993    7.206852
C      11.615970    5.382682    8.007321
H      11.753247    6.284682    8.187393
C      12.451787    4.428984    8.540967
H      13.162105    4.700587    9.075927
C      12.267136    3.108005    8.313576
H      12.834704    2.483009    8.702638
C      11.238876    2.692884    7.506535
H      11.113611    1.788569    7.330405
C      10.381423    3.645810    6.953173
H       9.673323    3.376522    6.414269
