28
7027230
Br     -2.106218   -3.690410    0.692841
Se      1.005486   -2.241009    1.391796
Se     -1.345844   -0.218165    0.011022
Mn     -0.391172   -2.406662   -0.660033
O      -2.197046   -2.694082   -2.991461
O       0.802720   -5.017790   -1.328677
O       1.436058   -1.246837   -2.652188
C       1.961385   -0.506092    1.431148
C       1.578436    0.512434    0.374578
C       0.136241    1.037551    0.359079
C      -1.988388   -0.372910    1.851365
C      -0.959827   -0.591074    2.969934
C      -0.193929   -1.893721    2.927740
C      -1.519521   -2.574852   -2.058890
C       0.344899   -4.017023   -1.055709
C       0.763443   -1.655262   -1.800560
H       2.904028   -0.676057    1.349344
H       1.801823   -0.081178    2.265554
H       1.724497    0.052004   -0.490827
H       2.204410    1.221469    0.407300
H       0.000000    1.440902    1.233095
H       0.095737    1.752929   -0.283302
H      -2.600861   -1.080677    1.928003
H      -2.458482    0.455356    2.084723
H      -1.426239   -0.503555    3.806923
H      -0.342445    0.150940    2.911379
H       0.326488   -1.921626    3.721674
H      -0.848133   -2.582462    2.953573
