26
7027308
Fe      1.183787    0.119758    4.383005
P       4.290620   -2.890897    6.463324
H       3.429565   -3.761250    6.537916
H       5.404878   -3.001477    6.360507
C       3.692916   -1.624860    5.250695
H       4.209351   -0.789862    5.378711
H       3.870159   -1.951336    4.333411
C       2.237378   -1.316437    5.379719
C       1.656077   -0.393427    6.300027
H       2.129594    0.136157    6.931038
C       0.241379   -0.403958    6.111530
H      -0.391107    0.119608    6.588316
C      -0.051200   -1.340509    5.079334
H      -0.914654   -1.553396    4.746693
C       1.174752   -1.899431    4.633796
H       1.268580   -2.553136    3.951377
C       2.479489    1.078727    3.147998
H       3.404921    0.883142    3.052237
C       1.929314    1.983683    4.039073
H       2.413591    2.512515    4.662020
C       0.551100    1.990454    3.869729
H      -0.067149    2.526056    4.353571
C       0.228975    1.082488    2.874828
H      -0.645667    0.886151    2.560331
C       1.432787    0.497990    2.408122
H       1.516383   -0.159477    1.727719
