30
7028554
Zn      2.576872    7.240897    0.354707
Cl      3.091899    9.167927   -0.566711
Cl      1.840483    7.296805    2.450170
N       1.287147    6.109826   -0.787289
N       3.691570    5.495919    0.211540
C       1.693952    4.822130   -0.889028
C       0.946216    3.863005   -1.540257
H       1.245160    2.961858   -1.581661
C      -0.253749    4.239863   -2.135303
H      -0.785219    3.601274   -2.594168
C      -0.659906    5.555968   -2.048709
H      -1.471233    5.835920   -2.456155
C       0.132961    6.467054   -1.357297
H      -0.155230    7.369857   -1.288535
C       3.014850    4.537208   -0.292760
H       3.357808    3.650970   -0.284577
C       4.956318    5.237088    0.837486
C       5.033999    4.335941    1.902634
H       4.258076    3.872944    2.196005
C       6.250397    4.123907    2.524551
H       6.313505    3.505196    3.242710
C       7.363522    4.804736    2.109289
H       8.192970    4.666417    2.551421
C       7.286047    5.686833    1.055255
H       8.071289    6.143204    0.773121
C       6.076021    5.929513    0.385461
C       6.012177    6.844741   -0.769457
H       5.568312    6.394995   -1.518150
H       6.921102    7.100673   -1.034492
H       5.505416    7.646496   -0.523963
