30
7028555
Zn      2.024250    7.312176    0.606504
Cl      4.064051    6.860045    1.321853
Cl      1.516791    6.734709   -1.449623
N       0.607825    6.958377    2.053809
N       1.478911    9.277249    1.006234
C       0.077781    8.112138    2.524954
C      -0.830697    8.124858    3.558007
H      -1.193408    8.946736    3.867068
C      -1.213489    6.920414    4.146148
H      -1.831883    6.906716    4.867212
C      -0.674809    5.752172    3.658021
H      -0.919736    4.915617    4.035710
C       0.229950    5.808921    2.607401
H       0.592862    4.997805    2.270819
C       0.555041    9.348968    1.895589
H       0.186507   10.189339    2.141995
C       2.050029   10.421715    0.389166
C       1.815904   11.728404    0.813466
H       1.226380   11.896694    1.538863
C       2.446404   12.777278    0.172742
H       2.272640   13.666668    0.460254
C       3.330669   12.565938   -0.884554
C       3.553296   11.256803   -1.298314
H       4.146006   11.089492   -2.021369
C       2.922675   10.195209   -0.670706
H       3.086767    9.306798   -0.966181
C       4.050277   13.713633   -1.528323
H       4.634556   13.375097   -2.238027
H       4.589729   14.179364   -0.854924
H       3.397655   14.335912   -1.911282
