28
7028090
Fe      8.755670    2.337003    6.912176
O       7.141311    5.801043    9.061412
C       7.826250    3.681226    8.129299
C       6.965739    3.294228    7.060133
C       6.774900    1.872535    7.137367
C       7.515818    1.401337    8.253480
C       8.164671    2.503114    8.866812
C      10.530843    3.182732    6.374867
C       9.668945    3.105008    5.258754
C       9.344403    1.744384    5.046738
C      10.014999    0.974551    6.033370
C      10.743195    1.861663    6.860232
C       8.233835    5.104076    8.424607
C       9.435774    5.222049    9.336276
H       6.719846    6.183184    8.510171
H       6.680522    3.805214    6.414998
H       6.264146    1.300018    6.547508
H       7.578043    0.474206    8.551060
H       8.817918    2.428860    9.725477
H      10.929870    3.971764    6.761796
H       9.343015    3.819093    4.782475
H       8.797100    1.408739    4.419019
H       9.972205    0.069396    6.100003
H      11.212080    1.635432    7.521268
H       8.396916    5.547054    7.615160
H      10.261355    4.739747    9.090186
H       9.673802    6.118414    9.505889
H       9.231981    4.873912   10.157838
