29
7029172
Nb      5.207910    2.046315    2.907080
Cl      6.402140    1.304873    4.800993
Cl      4.172126    3.239710    1.169853
Cl      6.881784    1.307820    1.467913
O       4.009949    0.705118    2.881633
N       6.475622    4.191655    3.270406
N       3.899438    3.323705    4.351901
C       7.817534    3.977246    3.850031
H       7.747210    3.381912    4.626399
H       8.192122    4.837829    4.131597
H       8.401661    3.569796    3.178514
C       6.623448    5.012450    2.065209
H       7.132944    4.515847    1.392514
H       7.097064    5.839877    2.290226
H       5.736494    5.230543    1.708245
C       5.702050    4.938770    4.268256
H       6.136915    4.800989    5.147119
H       5.786726    5.901031    4.051486
C       4.393147    4.674996    4.421409
H       3.909485    5.198124    3.735755
H       4.124765    5.038975    5.302628
C       3.600917    2.659848    5.535892
H       4.431898    2.360707    5.961186
H       3.036883    1.881787    5.341505
H       3.124430    3.265498    6.140257
C       2.515906    3.514536    3.817044
H       2.550350    4.083346    3.014758
H       1.953307    3.938933    4.492095
H       2.135578    2.642165    3.573177
