23
7029935
Pt      0.000000    0.000000    0.000000
Cl      1.168558    1.485693   -1.348770
Cl     -1.332869    1.741722    0.747763
N       1.230671    0.335339    1.496451
C       1.875135    0.556237    2.394322
C       2.666995    0.848106    3.583394
H       2.202164    1.538301    4.119574
H       3.541495    1.218043    3.306059
C       2.902998   -0.389454    4.458153
H       2.043573   -0.813507    4.662687
H       3.341210   -0.120651    5.292468
H       3.474652   -1.024647    3.979751
Cl     -1.168558   -1.485693    1.348770
Cl      1.332869   -1.741722   -0.747763
N      -1.230671   -0.335339   -1.496451
C      -1.875135   -0.556237   -2.394322
C      -2.666995   -0.848106   -3.583394
H      -2.202164   -1.538301   -4.119574
H      -3.541495   -1.218043   -3.306059
C      -2.902998    0.389454   -4.458153
H      -2.043573    0.813507   -4.662687
H      -3.341210    0.120651   -5.292468
H      -3.474652    1.024647   -3.979751
