18
7029720
Hg      0.120476   -1.007385   20.092564
Cl     -1.836683    0.314125   20.369128
C       1.955031   -2.536072   18.328575
C       4.140521   -3.523379   18.847267
H       4.914465   -3.963397   18.579204
C       1.051080   -2.548621   16.201502
H       0.384122   -2.287120   15.608711
C       2.835952   -2.421514   20.582053
H       2.754692   -2.156370   21.471239
C       1.821930   -2.128034   19.688508
C       3.168630   -3.656558   16.537126
H       3.894984   -4.143533   16.221116
N       0.930352   -2.196445   17.459003
C       4.006394   -3.127080   20.161433
H       4.679003   -3.318955   20.773838
C       3.117510   -3.270379   17.901417
C       2.153750   -3.314502   15.682809
H       2.176333   -3.571955   14.789264
