27
7031201
C      10.227930   12.228787    2.127518
H      10.406733   13.116316    1.914531
C      11.252977   11.316336    2.209737
H      12.126875   11.591871    2.054695
C      11.001079   10.002350    2.517472
H      11.699644    9.390357    2.574634
C       9.715874    9.606355    2.739072
H       9.541860    8.718826    2.956757
C       8.671114   10.498037    2.645890
H       7.795958   10.211425    2.773526
C       8.934951   11.818807    2.362430
C       6.742891   12.890626    3.757806
H       7.358312   12.622014    4.457843
H       6.387643   13.758770    4.006030
C       5.601594   11.911714    3.746844
H       5.946639   11.032493    3.522111
H       5.226424   11.860484    4.640292
C       4.507197   12.256479    2.788403
H       3.691647   11.812023    3.068731
H       4.350498   13.213238    2.822074
Cl      5.338828   11.997282   -1.562320
Cl      8.245046   13.465373   -0.738093
N       4.806644   11.870176    1.394593
H       4.089272   12.098635    0.901278
H       4.856046   10.971570    1.378149
Pd      6.455759   12.574162    0.407807
S       7.690581   13.095685    2.239571
