25
7032130
I      -8.979928    3.331250    6.750995
I      -5.148472    3.331250    8.866025
Zn     -6.421855    3.331250    6.649218
N      -5.827277    1.790747    5.500208
N      -5.089890   -0.172825    4.239100
C      -5.465807    0.877984    4.911089
C      -5.574999   -1.495998    4.641389
H      -6.338920   -1.396460    5.213935
H      -4.880260   -1.961440    5.113740
H      -5.822137   -1.997417    3.860919
C      -3.987143   -0.094208    3.274059
H      -3.209052   -0.518342    3.642447
H      -3.791127    0.826150    3.087228
H      -4.239838   -0.539662    2.461948
N      -5.827277    4.871753    5.500208
N      -5.089890    6.835325    4.239100
C      -5.465807    5.784516    4.911089
C      -5.574999    8.158498    4.641389
H      -6.338920    8.058960    5.213935
H      -4.880260    8.623940    5.113740
H      -5.822137    8.659918    3.860919
C      -3.987143    6.756708    3.274059
H      -3.209052    7.180842    3.642447
H      -3.791127    5.836350    3.087228
H      -4.239838    7.202162    2.461948
