15
7032613
Ta      0.000000    9.475660    7.481242
Te      0.000000    6.608138    6.732902
Cl      0.000000   11.699250    8.026368
Cl     -2.288962    9.194067    7.456512
Cl      0.000000    9.816764    5.209344
Cl      0.000000    8.698550    9.648845
C      -1.580531    6.586902    5.257728
H      -2.447817    6.600100    5.713613
H      -1.505115    5.783036    4.711526
H      -1.500301    7.382369    4.688947
C       1.580531    6.586902    5.257728
H       2.447817    6.600100    5.713613
H       1.505115    5.783036    4.711526
H       1.500301    7.382369    4.688947
Cl      2.288962    9.194067    7.456512
