28
7033949
Au      8.673263    0.616958    3.524947
Cl      8.723966   -1.503163    2.742528
Cl     10.898125    0.523334    3.976957
Cl      6.413919    0.670800    3.246991
N       8.635356    2.565773    4.145258
C       8.828450    2.816694    5.459044
H       8.943122    2.105373    6.047603
C       8.861133    4.088450    5.939590
H       9.007979    4.249562    6.843369
C       8.671510    5.137829    5.058957
H       8.688030    6.016158    5.363155
C       8.459970    4.868934    3.745171
H       8.328027    5.573771    3.153306
C       8.435863    3.572612    3.267932
C       8.288994    3.260234    1.813068
H       7.989514    4.057790    1.349055
H       7.603279    2.581373    1.705056
C       9.559504    2.773746    1.174912
C      10.773430    3.320816    1.501154
H      10.813430    3.981921    2.153639
C      11.942876    2.910882    0.878429
H      12.757134    3.286850    1.124213
C      11.898451    1.959099   -0.090378
H      12.678229    1.693980   -0.522428
C      10.693841    1.391780   -0.427642
H      10.663768    0.733179   -1.083432
C       9.529348    1.787025    0.193982
H       8.720876    1.392922   -0.041882
