28
7033376
Au      0.327077    0.578089    6.708656
Cl     -1.932858    0.796020    6.417304
N       3.094450    1.127913    7.695471
N       3.117096   -0.287154    6.043617
C       2.285655    0.438383    6.848058
C       4.430579    0.858762    7.429043
C       5.609802    1.330451    7.996276
H       5.601714    1.956970    8.709616
C       6.780937    0.849760    7.478890
H       7.604291    1.162119    7.834701
C       6.803584   -0.090917    6.435524
H       7.636642   -0.420379    6.120967
C       5.632448   -0.543703    5.861415
H       5.640536   -1.165720    5.142919
C       4.448372   -0.052210    6.377082
C       2.677111   -1.144116    4.948684
H       1.706557   -1.313348    5.038067
H       3.144595   -2.015481    5.010564
C       2.955337   -0.521198    3.573572
H       3.924273   -0.342965    3.487628
H       2.699758   -1.164820    2.867109
C       2.214481    0.731838    3.377619
C       1.599797    1.722025    3.221200
H       1.132313    2.475468    2.939302
C       2.646377    2.004679    8.769777
H       1.670970    1.947968    8.850565
H       2.903574    2.927353    8.566948
H       3.062098    1.726526    9.612033
