30
7033351
Br      3.022222    2.962458    3.393705
Br      6.627103    4.371454    4.392155
Zn      5.252685    2.512223    3.946345
N       5.530970    1.228727    5.545015
N       5.869743    0.801251    2.908110
C       6.006883    0.030506    5.155000
C       6.356560   -0.949208    6.068674
H       6.696740   -1.785720    5.772559
C       6.205239   -0.692757    7.416164
H       6.437264   -1.349802    8.061991
C       5.708275    0.538035    7.813316
H       5.587908    0.735362    8.735106
C       5.391479    1.473632    6.847724
H       5.062376    2.321701    7.121589
C       6.112646   -0.169188    3.707312
H       6.361281   -1.018384    3.361379
C       5.824946    0.531210    1.500865
C       5.241911   -0.655930    1.046058
H       4.896454   -1.286065    1.666695
C       5.172794   -0.905828   -0.311508
H       4.776870   -1.709036   -0.629734
C       5.681000    0.016209   -1.202232
H       5.633992   -0.157033   -2.135497
C       6.253842    1.183441   -0.757220
H       6.602825    1.803252   -1.386814
C       6.330922    1.471610    0.610422
C       6.989617    2.727418    1.073486
H       6.308406    3.352028    1.399408
H       7.476312    3.135600    0.327462
H       7.616179    2.519689    1.798240
