24
7036552
C       3.190515    8.003695    3.664134
H       3.474891    8.766077    4.149010
C       3.954845    6.837593    3.685339
H       4.762783    6.805791    4.178696
C       3.526591    5.715663    2.984177
H       4.042551    4.917943    2.998314
C       2.340415    5.759833    2.261811
H       2.045532    4.991266    1.781176
C       1.576385    6.925934    2.239193
C       0.349848    7.127352    1.495623
H      -0.049080    6.425041    0.998024
C      -0.268001   11.378321    2.205266
C      -0.206468    9.461321    4.276237
C       2.007129   10.954284    3.746125
Cl      2.268332   10.115044    0.661580
N       2.031761    8.030197    2.933287
N      -0.169106    8.296103    1.538032
N      -1.240805    8.577911    0.716711
H      -1.557381    7.954224    0.178118
H      -1.614408    9.372980    0.732261
O       2.692397   11.731685    4.262101
O      -0.935515   12.244063    1.847617
O      -0.766598    9.364146    5.288398
Re      0.841521    9.841187    2.667665
