25
7039284
Pd      4.746341    1.460255    3.216707
S       6.678793    2.650264    2.658544
S       3.979534    3.271366    2.006067
N       6.025314    4.844573    1.228782
C       5.628932    3.757195    1.869550
C       5.083346    5.738885    0.570000
H       5.307914    5.811424   -0.360914
H       5.126855    6.606873    0.977879
H       4.194129    5.388108    0.658138
C       7.424649    5.248533    1.183748
H       7.966899    4.570063    1.592913
H       7.534913    6.075460    1.658534
H       7.695177    5.366075    0.270203
S       2.813890    0.270247    3.774869
S       5.513149   -0.350855    4.427346
N       3.467369   -1.924062    5.204631
C       3.863751   -0.836684    4.563863
C       4.409337   -2.818374    5.863413
H       4.184769   -2.890913    6.794328
H       4.365828   -3.686362    5.455534
H       5.298554   -2.467598    5.775275
C       2.068034   -2.328022    5.249665
H       1.525784   -1.649552    4.840500
H       1.957770   -3.154949    4.774879
H       1.797506   -2.445565    6.163210
