29
7039329
C       6.318670    6.664862    3.608835
H       6.312108    5.951934    4.236061
Cl      3.581287    8.922871    7.537409
N       5.728877    7.832148    3.938906
Pt      4.755776    8.258005    5.688555
C       6.935524    6.475033    2.380898
H       7.354679    5.646420    2.178833
Cl      5.331651    6.303833    6.737833
N       4.463110    9.960500    4.707852
C       6.935603    7.503907    1.450117
H       7.340456    7.384496    0.598882
N       3.929809   11.103756    5.065352
C       6.334038    8.713109    1.780188
H       6.330654    9.435538    1.162105
N       4.238838   11.947645    4.060511
C       5.740877    8.848728    3.024582
N       4.637840   14.156474    3.484487
C       5.099624   10.054576    3.503688
C       4.968521   11.353569    3.083099
H       5.310923   11.747384    2.288552
C       3.842245   13.326556    4.143714
C       2.708304   13.669142    4.861458
H       2.180975   13.016012    5.305819
C       2.382477   15.019923    4.896202
H       1.622030   15.318544    5.381708
C       3.181381   15.927710    4.212288
H       2.971202   16.853566    4.215031
C       4.291708   15.455467    3.525631
H       4.834065   16.082329    3.060241
