13
7040101
Cr      4.289666    8.195025    2.722992
O       5.939750    8.195025    5.295505
O       6.117565   10.341794    1.549736
O       2.607451    8.195025    0.175031
O       2.516931    6.006516    3.909239
C       5.329491    8.195025    4.330844
C       5.427957    9.540648    1.983336
C       3.239361    8.195025    1.128380
C       3.168535    6.829406    3.465321
O       6.117565    6.048256    1.549736
O       2.516931   10.383534    3.909239
C       5.427957    6.849402    1.983336
C       3.168535    9.560644    3.465321
