27
7040308
C       4.619954    6.950775    9.723766
Cl      2.710546    5.086845    8.542175
Fe      6.237724    7.754100   10.591530
O       4.105856    4.725969   10.932895
S       4.411678    5.242237    9.645601
C       5.330605    7.733939    8.758030
H       5.724541    7.412920    7.897045
O       5.432522    4.653158    8.845305
C       5.349190    9.054463    9.259751
H       5.797632    9.834525    8.823804
C       4.657253    9.087030   10.506798
H       4.542038    9.892681   11.088273
C       4.199709    7.782790   10.805479
H       3.678471    7.500541   11.610435
C       7.855493    8.557425   11.459294
Cl      9.764902   10.421355   12.640885
O       8.369592   10.782231   10.250165
S       8.063770   10.265963   11.537460
C       7.144843    7.774261   12.425030
H       6.750906    8.095280   13.286015
O       7.042926   10.855042   12.337756
C       7.126257    6.453737   11.923309
H       6.677816    5.673675   12.359257
C       7.818194    6.421170   10.676262
H       7.933410    5.615519   10.094787
C       8.275739    7.725410   10.377581
H       8.796977    8.007659    9.572625
