29
7041602
C      13.002030    4.559454    9.065760
C      12.527397    4.630999    7.722243
C      13.057526    9.947807   12.064409
H      13.291191   10.620329   12.663798
C      12.575591   10.279980   10.816249
H      12.454376   11.171225   10.579559
C      12.458758    7.950683   10.325840
C      13.726394    3.432111    9.491463
H      14.053525    3.390206   10.361599
C      13.196265    8.635469   12.430513
H      13.507332    8.426967   13.280215
C      12.330242    6.811074    9.428459
C      11.858529    6.903061    8.095159
H      11.513872    7.706408    7.778436
C      12.280588    9.292660    9.941005
H      11.962218    9.498097    9.091303
C      11.909644    5.812512    7.277810
H      11.537239    5.851351    6.426405
C      13.948376    2.394710    8.624733
H      14.453678    1.663930    8.900588
Pt     12.831308    5.680563   11.975522
Cl     12.434369    3.449486   12.380621
Cl     12.829118    6.014882   14.247582
N      12.886658    7.642017   11.572297
N      12.778588    5.637738    9.930788
C      12.744998    3.510810    6.881055
H      12.417866    3.521031    6.009216
C      13.422628    2.425372    7.325489
H      13.538001    1.693570    6.763561
