30
7041566
C      -4.299325    3.938800    3.293552
H      -3.941191    4.752162    3.628570
C      -5.198953    3.986066    2.255470
H      -5.458266    4.826015    1.894500
C      -5.717550    2.840859    1.743506
H      -6.324252    2.862523    1.013310
C      -5.331020    1.628694    2.326248
H      -5.692321    0.807454    2.012464
C      -4.421502    1.637556    3.360792
C      -3.940619    0.418498    3.987180
H      -4.303960   -0.423421    3.738276
C      -2.436431   -0.652856    5.512453
C      -2.677300   -1.966446    5.090142
H      -3.270316   -2.135814    4.367024
C      -2.055173   -3.000381    5.727147
H      -2.237512   -3.891534    5.451112
C      -1.143792   -2.780793    6.788823
C      -0.919339   -1.482958    7.173385
H      -0.311861   -1.306697    7.882348
C      -1.557122   -0.428344    6.550535
H      -1.387143    0.460840    6.839547
C      -0.436348   -3.942739    7.442343
H       0.154108   -3.609910    8.150126
H       0.096078   -4.420318    6.771128
H      -1.098444   -4.553253    7.828084
Cl     -0.439220    2.893049    4.559423
Cl     -2.996685    3.057494    7.329687
N      -3.911322    2.789655    3.843264
N      -3.014742    0.487427    4.888424
Zn     -2.477948    2.471892    5.279474
