30
7042104
Ru      2.257363   -1.895408    8.793362
Cl      1.960827   -2.824041   10.986333
N       2.107845    0.029179    9.635036
O       5.230539   -2.008165    9.333293
N       1.241992    1.673645   10.817734
H       0.698100    2.100914   11.328240
C       2.988284    3.418154   10.344007
H       2.618395    4.094489   10.866283
O       2.644444   -0.702389    6.043690
C       1.118002    0.402258   10.430808
H       0.419902   -0.155276   10.689739
C       2.388126    2.183241   10.260149
C       4.070860    1.383935    8.746284
H       4.419909    0.715936    8.201940
C       4.684562    2.618848    8.828671
C       2.919516    1.159880    9.495125
C       4.151089    3.629704    9.637831
C       4.120873   -1.962312    9.105257
C       5.948435    2.889799    7.979789
H       6.248514    3.789148    8.131322
H       5.740047    2.774123    7.049990
H       6.641326    2.274948    8.231364
C       4.847105    4.960491    9.746700
H       5.635853    4.954238    9.199414
H       5.093003    5.118893   10.660315
H       4.256325    5.655585    9.449518
C       2.491279   -1.154669    7.073530
Cl     -0.141600   -1.859976    8.516335
O       2.123474   -4.720804    7.679664
C       2.224542   -3.687021    8.075417
