26
7042231
C       1.889626   -1.837583    2.208988
H       1.261241   -2.036815    2.933926
H       2.785694   -2.148700    2.457080
H       1.600172   -2.293642    1.390800
C       0.767505    0.205334    1.758369
C      -0.518963   -0.423001    1.690286
H      -0.588983   -1.368048    1.760355
C      -1.634222    0.328026    1.526171
H      -2.484846   -0.095356    1.492792
C      -1.548276    1.734853    1.404443
H      -2.332946    2.263128    1.312650
C      -0.324847    2.312204    1.422325
H      -0.257443    3.253564    1.317949
C       4.408292   -0.562476    0.815539
C       4.349294   -0.136423    3.370902
C       5.067275    1.740955    1.762475
B       2.187393    2.193581    1.585909
Mn      3.638270    0.647407    1.905264
N       0.820394    1.574654    1.587234
N       1.922521   -0.392360    1.975996
O       4.861488   -1.332448    0.098283
O       4.813652   -0.605704    4.310420
O       5.970603    2.435659    1.657304
H       2.187128    3.270092    1.402721
H       2.745574    1.863902    2.606757
H       2.901695    1.646489    0.731163
