30
7042235
Hg      3.714989    2.617370    3.513916
Br      2.995529    4.779606    2.595150
Br      4.157379    0.261911    2.938237
O       5.722124    2.977881    4.824295
N       3.109258    2.611653    5.804886
N       5.994074    1.952111    5.577105
C       5.164275    1.449169    6.433053
H       5.462481    0.691856    6.923985
C       3.813013    1.930568    6.721670
C       3.295447    1.654654    7.987908
H       3.789668    1.133484    8.609001
C       2.048483    2.155111    8.321799
H       1.685058    2.000168    9.184821
C       1.346022    2.876795    7.392281
H       0.492460    3.238880    7.601670
C       1.906834    3.064880    6.144436
H       1.406932    3.543794    5.495047
C       7.421555    1.448340    5.445529
C       7.539826    0.027343    5.961928
H       7.297921    0.002486    6.911252
H       6.937121   -0.555970    5.455433
H       8.463444   -0.284200    5.851574
C       8.273742    2.416110    6.271767
H       8.011165    2.359767    7.214018
H       9.220238    2.177482    6.181220
H       8.135533    3.330851    5.947780
C       7.790943    1.501369    3.984050
H       7.711072    2.422739    3.660063
H       8.713826    1.193141    3.869452
H       7.187503    0.921370    3.473311
