21
7043429
Nb      3.393552    8.627473    5.200805
Cl      1.698373    9.754355    4.017726
Cl      4.884959   10.300488    5.240793
Cl      4.361695    7.404235    6.974181
S       1.955437    9.838000    7.193012
S       1.515136    6.744040    5.754594
S       4.011883    7.271447    3.568984
C       2.788718    9.631101    8.780229
H       2.948426    8.677751    8.943589
H       2.225367    9.994282    9.494750
H       3.644450   10.107776    8.764604
C       0.505748    8.787840    7.375336
H       0.069657    8.995534    8.239722
H      -0.136900    9.005749    6.654422
C       0.810304    7.297664    7.325618
H      -0.027200    6.796021    7.493239
H       1.443464    7.077486    8.054344
C       0.121646    6.906110    4.633023
H      -0.165549    7.842435    4.601062
H      -0.619223    6.347719    4.949799
H       0.388977    6.615565    3.735966
