30
7044240
Re     -2.410252    4.329141   10.009275
O      -5.123592    2.840977   10.425759
Br     -1.267484    2.119934   10.870745
S       1.979412    6.259313   10.722852
C      -4.140655    3.381230   10.273940
S       3.771175    6.372811   13.307261
O      -2.110166    2.866612    7.258797
C      -2.198410    3.415837    8.227877
C      -3.354960    5.831276    9.263269
O      -3.972525    6.688760    8.829772
C      -2.639339    5.185920   11.803761
O      -2.823944    5.687721   12.787674
O       0.063585    5.876137    8.830644
C      -0.458642    5.250007    9.868217
C       0.508587    5.308967   10.934148
C       0.441068    4.743079   12.197850
H      -0.273776    4.189873   12.489214
C       1.550468    5.076972   13.003478
C       2.446739    5.894722   12.325820
C       3.121013    5.464058   14.649635
H       3.542369    5.415082   15.499165
C       1.959704    4.837287   14.360249
H       1.474035    4.303730   14.978343
C      -0.683292    6.132485    7.608387
H      -1.545985    6.572641    7.815393
H      -0.868036    5.284832    7.131030
C       0.173698    7.031626    6.764950
H       1.026590    6.587522    6.577983
H       0.339566    7.869031    7.246407
H      -0.286552    7.224950    5.921948
