29
7045149
C      -0.252524   15.401387    7.155116
C      -0.799201   16.178779    9.206846
H      -1.277946   16.617387    9.901125
C       0.367622   15.526083    9.331657
H       0.869470   15.403474   10.129154
C      -2.401509   16.663822    7.339276
H      -2.184915   17.431300    6.770639
H      -2.974397   16.956518    8.079161
H      -2.872106   15.987822    6.809147
C       1.802687   14.235301    7.624463
H       1.705223   13.316518    7.979493
H       2.661717   14.606953    7.946270
C       1.770637   14.219475    6.091310
H       1.949509   13.290431    5.766407
C       2.742245   15.124866    5.511498
C      -1.797285   14.254257    4.430702
H      -2.578024   13.925214    4.860333
C      -0.754698   13.483649    3.920281
H      -0.702442   12.535649    3.925566
C       0.224964   14.382257    3.385546
H       1.067063   14.130431    3.025532
C      -0.266534   15.704170    3.481514
H       0.143570   16.488692    3.134261
C      -1.481456   15.633561    4.191650
H      -2.005326   16.377387    4.466945
N      -1.175211   16.094083    7.872349
N       0.692013   15.069040    8.069874
N       3.500420   15.860866    5.059744
Ni      0.016068   14.815648    5.423609
