29
7046695
Zn      1.715655    8.975665    6.613174
Se      0.726847   10.581208    5.082066
Se      3.535702    7.461574    6.089868
O       2.075805   10.425525    7.895404
O       0.583614    7.447725    7.143780
O       1.720429   13.972333    8.064501
O       0.707402    3.882053    6.836874
C       1.753153   11.642815    7.526669
C       1.127262   11.950361    6.284143
C       0.816933   13.302561    6.007778
H       0.395554   13.533937    5.188366
C       1.116434   14.266508    6.902426
H       0.895402   15.169566    6.705768
C       2.017681   12.702273    8.390031
C       2.612657   12.548261    9.736101
H       2.912183   13.421711   10.062376
H       3.378391   11.938900    9.686192
H       1.941983   12.182454   10.349915
C       1.068632    6.252163    6.889018
C       2.386135    6.031055    6.374278
C       2.779101    4.705120    6.108342
H       3.646287    4.532006    5.762699
C       1.935511    3.677181    6.340012
H       2.217391    2.791315    6.147078
C       0.266580    5.135398    7.114729
C      -1.097953    5.159037    7.686827
H      -1.551549    4.314718    7.484209
H      -1.602920    5.902592    7.297234
H      -1.042881    5.274606    8.658202
