30
7047457
Re      1.419941    7.492898    7.119318
P       1.986838    5.792924    8.625875
O       4.763404    9.093872    8.821236
O      -1.214751    6.076135    6.579232
O       2.697111    5.925867    4.837519
C      -0.195994    6.587046    6.793199
C       2.212703    6.502189    5.715094
C       4.178349    9.207015    7.765871
H       4.699451    9.232172    6.972343
C       2.732687    9.307783    7.631496
C       0.634639    9.611855    6.754954
H      -0.106175    9.862431    6.130935
C       0.499747    9.360819    8.148325
H      -0.354196    9.383288    8.668472
C       2.002196    9.571194    6.431419
H       2.400215    9.802147    5.543486
C       1.782418    9.162818    8.678591
H       1.998044    9.020576    9.645247
C       0.965229    5.740241   10.108140
H       0.963049    6.623217   10.534100
H       0.049593    5.492228    9.865117
H       1.329505    5.078001   10.731891
C       1.844428    4.106739    8.025319
H       2.372641    4.009065    7.203365
H       2.187588    3.489349    8.705611
H       0.907676    3.903576    7.838837
C       3.655328    5.849849    9.311190
H       3.830349    6.744298    9.670448
H       3.735577    5.187608   10.029324
H       4.305038    5.647446    8.606184
