29
7048168
Au      4.533029    4.418039    8.010155
Cl      6.333562    5.145238    9.195563
Cl      2.749354    3.708120    6.772110
Cl      3.520140    6.407171    8.346165
N       5.455665    2.644359    7.664411
O       6.450797    0.708145    7.970677
C       6.235331    3.127256    5.339022
N       6.626981    1.029819    6.531279
C       7.450584    3.748233    5.631228
H       7.895265    3.560011    6.449801
C       5.647544    2.125207    6.289727
H       4.789822    1.758021    5.928841
C       8.010492    4.642285    4.726128
H       8.840723    5.059613    4.922975
C       7.354211    4.924618    3.532969
H       7.735609    5.537881    2.916651
C       5.872828    1.762649    8.513989
C       5.585684    3.414988    4.138111
H       4.759605    2.994575    3.931530
C       6.279075   -0.187450    5.807885
H       6.904300   -0.901767    6.051420
H       6.331448   -0.020828    4.843660
H       5.366758   -0.458212    6.044209
C       5.803949    1.783477    9.988899
H       5.090923    2.392111   10.273173
H       6.660084    2.091265   10.352489
H       5.613928    0.880939   10.320041
C       6.152151    4.319069    3.242927
H       5.706616    4.518861    2.428139
