27
7048997
Au      9.417304    2.644864    0.917043
C       9.647415    5.411809    1.803218
H      10.022902    5.493564    0.934358
C       9.622104    6.514059    2.638268
H       9.973306    7.346774    2.346065
C       9.082927    6.389377    3.895505
H       9.081816    7.129613    4.490843
C       8.538142    5.171624    4.290039
H       8.150111    5.076820    5.152002
C       8.567151    4.097676    3.414314
C       8.064780    2.739179    3.827177
C       6.900972    2.641269    4.743255
C       5.857830    3.555348    4.716728
H       5.920654    4.328942    4.168415
C       4.724230    3.345760    5.485540
H       4.003863    3.964450    5.454302
C       4.646952    2.225917    6.305477
H       3.869335    2.076391    6.829963
C       5.694748    1.328666    6.358531
H       5.640412    0.570921    6.929851
C       6.821205    1.528310    5.586665
H       7.541672    0.910102    5.627614
Cl     11.613294    2.577551    1.564472
Cl      9.736824    0.911249   -0.502734
Cl      7.244342    2.781785    0.287943
N       9.152105    4.228478    2.196627
O       8.628346    1.743253    3.408527
