29
7048998
Au      2.789715    4.190883    3.671437
C       2.783115    1.801555    5.400352
H       2.548595    2.436383    6.066906
C       2.950631    0.486449    5.752451
H       2.830105    0.211124    6.653632
C       3.293581   -0.425587    4.788592
H       3.414855   -1.339649    5.016398
C       3.460299   -0.005737    3.486560
H       3.712652   -0.629505    2.816168
C       3.262183    1.320295    3.153869
C       3.305892    1.802757    1.748543
C       4.464116    1.742505    0.979430
C       4.481989    2.169363   -0.331703
H       5.285869    2.143715   -0.836825
C       3.306785    2.636264   -0.900589
H       3.306318    2.927259   -1.804927
C       2.144242    2.683282   -0.173692
H       1.339757    2.986681   -0.578118
C       2.149315    2.286356    1.150929
H       1.349200    2.344691    1.659954
C       6.786736    1.247125    1.100598
Cl      5.059991    4.271497    3.514631
Cl      2.640577    6.349896    3.037198
Cl      0.529812    4.091588    3.970573
F       7.628217    0.753999    1.993730
F       7.183840    2.469600    0.797404
F       6.875703    0.526634    0.005921
N       2.943711    2.207545    4.128475
O       5.575558    1.217679    1.655666
