30
7048479
Au      2.088538    7.078718    9.502333
Cl      3.110221    6.050517    7.766741
Cl      0.247758    5.830558    9.087347
N       3.587894    8.401429    9.865930
N       1.341021    7.959591   11.171751
C       4.659280    8.581088    9.081462
H       4.783886    8.024944    8.321482
C       5.587048    9.568988    9.366827
H       6.343560    9.694188    8.805584
C       5.401151   10.369110   10.475562
H       6.035845   11.042836   10.689414
C       4.280794   10.185613   11.278261
H       4.145429   10.727009   12.046939
C       3.368098    9.205242   10.942655
C       2.120908    8.960777   11.668701
C       1.723263    9.654167   12.794230
H       2.240263   10.383149   13.116300
C       0.559690    9.275364   13.450801
H       0.276964    9.742018   14.228609
C      -0.185443    8.216457   12.967631
H      -0.969840    7.933520   13.422236
C       0.227393    7.570602   11.808513
H      -0.283651    6.847451   11.464682
P       2.071299   12.423593    8.955861
F       3.650206   12.464632    9.219551
F       0.487042   12.396430    8.696333
F       2.085402   10.834716    8.962751
F       2.046308   14.016308    8.961028
F       1.824145   12.418721   10.533267
F       2.319789   12.421969    7.389507
