30
7049935
Re      7.458020    1.905045   13.002429
O       7.491289    2.846220   11.087877
O       9.763313    3.434955   14.288756
O       5.922064    0.941843   11.868896
O       5.594097    3.950933   14.333013
C       6.751551    2.310885   10.168877
C       7.454412    0.865748   14.589448
N       8.678584    0.411848   11.954808
O       7.497601    0.205590   15.535784
N       9.243237   -1.485187   11.041015
C      10.263624   -0.622110   10.794994
H      11.047366   -0.801667   10.327684
C       5.279336    1.429118    7.489979
H       4.978029    1.321650    6.616539
C       8.910555    2.846220   13.794110
C       6.276261    3.185310   13.826652
C       9.910054    0.550020   11.367742
H      10.421166    1.326990   11.365139
C       5.872244    1.224863   10.617963
C       6.846386    2.818185    8.859367
H       7.410639    3.550433    8.765645
C       6.237808    2.405670    7.696949
H       6.512563    2.854230    6.930248
C       8.305174   -0.832372   11.733519
H       7.501133   -1.204170   12.017290
C       4.977510    0.511973    9.799194
H       4.469352   -0.124155   10.249582
C       4.722431    0.590070    8.448030
H       4.080870   -0.004672    8.130415
H       9.149032   -2.249475   10.778072
