24
7051784
Au      1.042467    8.405818    1.819146
P      -0.072938    6.714666    2.701219
Cl      2.101633   10.162663    0.796653
S      -2.139046    4.628625    1.552151
S       2.542931    5.108443    2.557974
S      -1.489565    5.742049    5.294605
C      -0.854916    6.999144    4.308653
N       0.343463    4.075503    3.347094
C       0.872318    5.192040    2.921408
C       1.306579    3.097419    3.401717
H       1.112262    2.212054    3.686135
N      -1.103234    8.216757    4.731513
C      -3.289856    5.230553    0.442638
H      -3.973737    4.711892    0.036730
C      -1.448642    6.204468    1.641526
N      -2.049493    7.106439    0.909762
C      -3.091189    6.546864    0.226028
H      -3.639066    7.051614   -0.363528
C      -2.126880    6.929841    6.337252
H      -2.619178    6.746226    7.128349
C       2.540466    3.472143    3.026888
H       3.302815    2.905846    3.025004
C      -1.836598    8.160310    5.887080
H      -2.121895    8.944149    6.341019
