28
7052705
W       2.054091   17.381763    9.517019
S       4.222701   18.733195    6.624343
H       3.755009   17.645529    6.405200
P       2.803617   19.269896    8.088805
O       3.295029   18.749903   12.097094
O      -0.644275   18.907816   10.200169
O       0.663503   16.035222    6.978533
O       4.767749   15.781950    9.064702
O       1.021701   14.979750   11.261731
C       2.868796   18.266383   11.159830
C       0.326341   18.377635    9.921342
C       1.179397   16.527504    7.871006
C       3.798657   16.366942    9.202436
C       1.400538   15.853877   10.626810
C       3.529951   20.778324    8.724286
H       4.320678   20.820095    9.249468
C       2.799604   21.841946    8.353635
C       3.123031   23.265406    8.683973
H       3.863341   23.291691    9.325613
H       2.335462   23.697172    9.075900
H       3.382540   23.739961    7.866527
C       0.645366   22.547563    7.080434
H       1.099629   23.179624    6.485825
H       0.299144   23.026805    7.863167
H      -0.098269   22.124152    6.602283
C       1.613241   21.496575    7.527230
C       1.509215   20.185997    7.249522
H       0.845972   19.799262    6.689627
