30
7052894
Zr      4.504374    8.527672    8.677609
B       4.929676    6.727281    6.735036
C       2.228764    8.087792    8.495426
H       1.786946    7.527289    7.855164
C       2.441886    9.437852    8.096305
H       2.139417    9.651104    7.245182
C       3.181256   10.460319    8.750609
H       3.311588   11.232457    8.272059
C       3.897674   10.385295    9.978692
H       4.434577   11.155318   10.238044
C       4.028826    9.273496   10.859216
H       4.639502    9.363699   11.541387
C       3.489463    7.965862   10.724274
H       3.811605    7.334441   11.389988
C       2.691895    7.432856    9.669312
H       2.516479    6.526968    9.709247
C       5.057467    8.159955    6.208871
H       4.500153    8.506459    5.496421
C       6.007499    9.050165    6.727356
H       6.098568    9.952196    6.398229
C       6.838839    8.689975    7.812817
H       7.426482    9.320152    8.157961
C       6.751049    7.409963    8.398443
H       7.287133    7.233663    9.147536
C       5.822165    6.459036    7.946442
H       5.819870    5.613740    8.447593
C       3.935380    5.664752    6.105525
H       4.373099    5.213114    5.353799
H       3.128795    6.121366    5.788247
H       3.691109    5.002848    6.786599
