28
7053876
Au      4.963709   -0.380435    7.793298
Cl      7.210424   -0.522616    8.209204
Cl      5.255720    1.524836    6.536719
Cl      2.692142   -0.295882    7.504028
C       4.728508   -4.252002    9.379574
H       4.871515   -5.170275    9.332500
C       6.313152   -4.773125    6.918843
H       6.430381   -5.395074    7.600944
C       6.832314   -4.976343    5.648789
H       7.331164   -5.740628    5.466957
C       6.610757   -4.055301    4.665789
H       6.934097   -4.184828    3.803702
N       4.147429   -2.215101   10.030292
N       5.056321   -3.312685    8.419649
C       5.619797   -3.611428    7.116366
C       4.710849   -2.073846    8.835924
N       5.392306   -2.698963    6.209975
C       3.572887   -3.919282   11.661241
H       3.550450   -4.808430   11.933528
C       4.154513   -3.569649   10.406878
C       3.062371   -2.971092   12.440257
H       2.685451   -3.198349   13.259885
C       5.888723   -2.925759    4.997147
H       5.742602   -2.288629    4.336276
C       3.622476   -1.227341   10.866534
H       3.643755   -0.330426   10.619169
C       3.090717   -1.604375   12.023982
H       2.725332   -0.956951   12.582400
