20
7055267
C       0.545680   11.824009    4.442647
H       0.780595   11.323566    5.252867
H      -0.379251   12.141971    4.512143
H       1.147327   12.592646    4.347726
C       0.680443   10.925423    3.237488
C       0.458047   11.210206    1.895032
H       0.192203   12.043817    1.527213
C       0.704008   10.035132    1.203464
C       0.573663    9.740672   -0.255948
H       0.818152    8.806143   -0.423755
H       1.170155   10.330974   -0.762759
H      -0.352740    9.891358   -0.539016
C       1.439682    7.704338    1.896727
H       1.669441    7.288224    2.754408
H       2.210703    7.657335    1.293300
H       0.681916    7.230161    1.496703
N       1.059694    9.649431    3.379870
N       1.072213    9.121339    2.118775
Cl      1.557507    7.473471    7.012298
Au      1.330472    8.596565    5.072008
