23
7056089
Au      6.272028    5.110382    5.924476
Cl      6.779241    5.185342    8.134593
Cl      4.037719    4.942848    6.364831
Cl      8.486836    5.297713    5.388415
N       5.446292    5.079251    2.941760
C       5.789288    5.071058    4.031420
C       5.000180    5.094270    1.616845
C       3.603426    5.157078    1.425433
C       3.227349    5.148886    0.108004
H       2.299213    5.180290   -0.091963
C       4.116570    5.095635   -0.949576
H       3.786450    5.092905   -1.840338
C       5.477093    5.046481   -0.727153
H       6.084116    5.010981   -1.456444
C       5.948444    5.047847    0.591346
C       7.414665    4.967289    0.920704
H       7.696192    5.796081    1.362342
H       7.929359    4.845769    0.095171
H       7.573859    4.208132    1.519535
C       2.641744    5.239001    2.545034
H       2.809619    4.505787    3.172738
H       1.728742    5.168001    2.196429
H       2.750179    6.096466    3.006990
