28
7056941
Fe      4.886346    7.252772   10.342074
C       6.485175    8.341218    9.676630
H       7.380801    8.099678    9.742534
C       5.622117    8.057925    8.596490
H       5.849751    7.592558    7.823943
C       4.354157    8.601748    8.891321
H       3.605676    8.557228    8.340884
C       4.405504    9.223798   10.157175
H       3.703320    9.654721   10.588306
C       5.731842    9.069155   10.652007
C       6.242195    9.503084   11.953099
O       5.342833   10.054990   12.720313
H       5.638890   10.323681   13.387798
O       7.418590    9.384136   12.266570
C       3.443982    5.800890   10.376768
H       2.697229    5.748439    9.824644
C       3.507643    6.447896   11.634459
H       2.811347    6.902640   12.050283
C       4.816822    6.282519   12.149699
H       5.122954    6.603769   12.967184
C       5.581395    5.548050   11.214049
H       6.474951    5.306439   11.302417
C       4.729410    5.244687   10.108059
C       5.086079    4.595994    8.842613
O       4.316726    4.280317    7.975672
N       6.500054    4.386696    8.770504
N       6.866681    3.907854    7.668188
N       7.311203    3.495189    6.737300
