27
7058960
Pt      1.958785   10.753776    3.697640
Cl      3.777783   10.356495    5.052885
Cl      3.347544   11.147321    1.896958
N       0.622966   10.408469    5.219764
N       0.293490   11.149020    2.554523
H       0.427040   11.971098    2.185465
C       0.673347   11.463244    6.264358
H       1.524228   11.434369    6.708833
H      -0.027190   11.313775    6.904594
H       0.554992   12.324389    5.855185
C      -1.007622   10.671738    0.465334
H      -1.118780   10.017812   -0.229458
H      -0.753317   11.512501    0.077021
H      -1.834512   10.777046    0.941900
C       0.798101    9.095521    5.912951
H       0.782107    8.387242    5.266297
H       0.085568    8.969831    6.543559
H       1.639385    9.088727    6.375076
C       0.063976   10.213141    1.416862
H      -0.181532    9.345202    1.771478
H       0.894065   10.107833    0.925854
C      -0.709334   10.347323    4.568296
H      -0.854879    9.452208    4.226516
H      -1.394677   10.527365    5.232601
C      -0.842884   11.293393    3.485191
H      -0.863676   12.197000    3.839808
H      -1.675371   11.135432    3.013439
