28
7058169
Fe     -0.355813    3.561188    6.175918
C      -0.341909    1.721850    7.065950
H       0.380943    1.105349    7.058018
C      -0.567818    2.731716    8.037972
H      -0.022075    2.908365    8.795408
C      -1.750022    3.431673    7.681147
H      -2.136462    4.156550    8.158574
C      -2.253673    2.856143    6.483356
H      -3.033832    3.133269    6.017217
C      -1.390743    1.796321    6.103869
H      -1.493509    1.235719    5.344156
C       0.145437    5.532353    5.947263
H      -0.163702    6.252153    6.484757
C      -0.474851    5.044361    4.761018
H      -1.269742    5.384845    4.367184
C       0.300636    3.960717    4.269074
H       0.114066    3.450152    3.490013
C       1.402119    3.773384    5.143605
H       2.080061    3.114108    5.050893
C       1.318295    4.743702    6.185325
C       2.289086    4.840722    7.269483
H       2.997033    4.207639    7.277853
C       2.265200    5.735645    8.240971
H       1.557674    6.368983    8.277498
C       3.321600    5.764670    9.269649
O       4.313004    5.030716    9.259280
O       3.109867    6.658783   10.200088
H       3.770818    6.591366   10.807375
