25
7058099
Re      1.139617    2.742337   10.119551
Br      2.346020    3.617869    7.990742
N       2.632858    1.209821   10.109146
N       2.341268    0.116596    9.368617
N       0.396718    1.192905    8.799450
N      -0.292322   -0.832382    7.052779
C       3.780404    0.943844   10.708914
H       4.224551    1.520391   11.287874
C       4.226779   -0.322660   10.347830
H       5.005490   -0.742218   10.635473
C       3.301727   -0.824460    9.492242
H       3.324594   -1.653919    9.072405
C       1.162418    0.122370    8.623191
C       0.818132   -0.899342    7.761484
H       1.374112   -1.640157    7.679475
C      -1.036572    0.233647    7.222917
C      -0.730774    1.243502    8.087072
H      -1.307217    1.966698    8.180098
Br     -2.623231    0.368986    6.222896
C      -0.308027    3.978447    9.942680
O      -1.172304    4.724012    9.848431
C       2.025141    4.091236   11.137320
O       2.532058    4.925255   11.723623
C       0.393790    2.013424   11.738311
O       0.012355    1.620432   12.708956
