29
7059814
Pd     -0.315645    6.083000    2.728453
H       0.916380    7.214438    0.922217
Cl     -0.951620    7.766896    4.151614
O       3.051505    8.193801    0.121689
H       0.790122    8.102556    2.013598
N       0.984404    7.343398    1.789865
O       4.595046    7.424910    1.547033
C       2.374591    7.063580    2.130376
H       2.502391    6.102648    2.169606
H       2.563011    7.423693    3.010935
C       3.349987    7.648764    1.141585
C       5.685557    7.844637    0.651009
H       5.513100    7.522323   -0.236377
H       6.516850    7.482942    0.967171
H       5.738216    8.803354    0.638769
H      -1.547669    4.951562    4.534689
Cl      0.320331    4.399104    1.305292
O      -3.682794    3.972199    5.335217
H      -1.421411    4.063444    3.443307
N      -1.615693    4.822602    3.667041
O      -5.226335    4.741090    3.909873
C      -3.005880    5.102420    3.326530
H      -3.133680    6.063352    3.287300
H      -3.194300    4.742307    2.445971
C      -3.981276    4.517236    4.315321
C      -6.316846    4.321363    4.805897
H      -6.144389    4.643677    5.693282
H      -7.148139    4.683058    4.489735
H      -6.369505    3.362646    4.818137
