21
7059687
I       0.133592    8.212492    7.803223
I       3.956217    7.889889    8.200719
I       1.651059    5.093517    9.507955
Fe      1.993334    6.395111    7.225303
O       4.026547    4.434513    6.639552
O       2.410157    7.890034    4.731947
O      -0.192743    4.723563    6.227125
C       2.238975    7.322103    5.698801
C       0.641064    5.383002    6.610317
C       3.243996    5.189818    6.843155
N       1.957048    8.295285    0.727751
H       2.784430    8.031727    0.532073
H       1.490471    8.390627   -0.023900
H       1.566067    7.686857    1.245456
C       2.010375    9.564778    1.428355
H       2.324261    9.422679    2.334284
H       1.117302    9.944987    1.475977
C       2.953462   10.551033    0.699560
H       3.866620   10.320519    0.888890
H       2.780546   11.445401    1.001571
H       2.802524   10.499425   -0.248333
