24
7059105
Pt     -2.379790   10.027556    6.459362
Cl     -3.792019   11.421672    7.619742
Cl     -0.587512   10.731182    7.765819
S      -4.021961    9.147491    5.258455
O      -0.516521    9.220741    4.286373
H      -0.648349   10.044360    4.182515
O      -4.314076    7.753375    5.622971
N      -1.095348    8.798282    5.514599
N       0.136431    6.887155    5.113845
H       0.483546    7.231513    4.382328
H       0.359421    6.075370    5.366715
C      -0.727601    7.595988    5.838588
C      -1.270038    7.001941    7.089392
H      -1.928076    6.312042    6.864744
H      -1.699213    7.702490    7.623354
H      -0.538530    6.600782    7.603034
C      -3.640925    9.220741    3.525505
H      -2.857166    8.662195    3.339239
H      -3.448751   10.147312    3.272635
H      -4.406413    8.892950    3.008476
C      -5.544949   10.060927    5.302368
H      -5.388441   10.972114    4.977250
H      -5.879100   10.095244    6.223538
H      -6.207247    9.619533    4.731153
