21
7059770
C       2.263434   -0.038662   16.307007
H       2.556867    0.427682   17.080924
C       1.058314   -1.271362   14.938889
H       0.355166   -1.815044   14.603583
C       2.173655   -0.898598   14.273211
H       2.402186   -1.123946   13.379055
C       4.187725    0.431366   14.830726
H       4.617170    0.158273   14.028634
C       4.828276    1.361696   15.648431
H       4.416623    1.648515   16.455071
H       5.676941    1.708552   15.398883
N       2.919414   -0.124984   15.146493
N       1.134341   -0.715620   16.189871
H       0.522533   -0.794367   16.817618
Cl      3.758647    4.034632   12.382344
Cl      6.009363    1.751360   12.765029
Cl      2.295769    3.034394   15.135652
Pt      4.128969    2.367892   13.931773
O      -0.188634   -1.417501   18.479621
H      -1.048845   -1.462547   18.356305
H       0.312491   -2.128124   18.496145
