25
7059195
V       1.512153    8.684832    0.939694
O       0.903260    8.503741    2.855310
O       2.489796    8.060481   -0.532361
O       2.413601    9.973775    1.373646
O       0.134627    9.191432    0.301524
N       1.367392    6.560920    1.351225
N       0.887459    6.300655    2.617957
H       0.740908    5.502953    2.904791
C       0.672211    7.368623    3.348794
C       0.186240    7.226942    4.732711
H       0.850233    7.561501    5.340177
H       0.017465    6.300655    4.920474
H      -0.626240    7.728185    4.839846
C       1.656075    5.547005    0.599734
H       1.507988    4.689773    0.928871
C       2.192680    5.692259   -0.713496
C       2.573452    6.943103   -1.238126
C       3.128423    6.995966   -2.521536
H       3.371691    7.816289   -2.886015
C       3.317650    5.841084   -3.248286
H       3.685170    5.893470   -4.100947
C       2.970943    4.605241   -2.731387
H       3.112099    3.831351   -3.227300
C       2.417358    4.536186   -1.480008
H       2.185514    3.706338   -1.130991
