30
7059689
I       6.896860    0.088248   11.598574
I       3.044196   -0.193205   11.383853
I       5.241733   -3.299385   10.909793
Fe      5.127382   -0.856435    9.869818
O       5.012182    1.787087    8.779859
O       7.436100   -1.494856    8.230300
O       3.143495   -1.826957    7.982999
C       5.030419    0.801616    9.224740
C       6.609180   -1.274113    8.858368
C       4.023844   -1.498736    8.740605
N       6.091371    0.956921    1.177626
H       6.947309    1.033327    0.945791
H       5.590851    0.906079    0.439647
H       5.978548    0.218711    1.660087
C       5.708664    2.075199    1.926073
H       4.749798    2.205616    1.826041
H       6.151945    2.858786    1.573872
C       6.027809    1.937482    3.383713
H       5.629192    1.128447    3.734175
H       6.990906    1.875887    3.499605
C       5.511811    3.128220    4.140011
H       4.567624    3.239194    3.935026
H       5.974843    3.920338    3.835856
C       5.673776    3.009824    5.626437
H       5.118226    2.283559    5.958973
H       6.595057    2.806721    5.839771
C       5.267144    4.290899    6.293759
H       5.507038    4.263812    7.216796
H       4.319623    4.413099    6.204155
H       5.721696    5.026463    5.864056
