24
7059690
C       4.774389    6.071851    9.835910
C       5.032295    6.936639    7.400351
C       5.267189    4.340680    7.914004
Fe      5.954895    5.900168    8.501661
I       7.017883    8.150451    9.391732
I       7.346398    4.385952   10.161119
I       7.760551    5.698119    6.561801
O       4.011972    6.161916   10.643079
O       4.417552    7.585430    6.694664
O       4.866951    3.405752    7.545548
C       2.781348    5.738688    2.985121
H       3.198290    5.098537    2.390048
H       3.120917    6.613248    2.727092
C       1.407020    5.738688    2.668186
H       1.033143    4.942724    3.071801
H       1.017650    6.495135    3.139810
N       0.913449    5.793684    1.373905
H       1.592317    5.830427    0.799035
H       0.405001    6.517803    1.278668
H       0.427200    5.066138    1.212128
C       3.272271    5.491606    4.215390
H       3.334394    4.544547    4.348893
H       2.687712    5.872112    4.875176
H       4.144707    5.885543    4.296778
