29
7060084
C       3.754998   14.583425    5.087222
C       3.869382   15.828435    4.517794
H       3.732413   16.593276    5.028794
C       4.198691   15.934758    3.145225
H       4.252605   16.778484    2.758013
C       4.442030   14.816650    2.361889
H       4.679541   14.912683    1.467639
C       4.327646   13.537342    2.930327
C       3.980852   13.436163    4.293984
C       4.044237   11.107343    4.224662
H       3.942967   10.284195    4.646535
C       4.396131   11.136496    2.861006
H       4.511244   10.340787    2.392589
C       4.567343   12.333489    2.231168
H       4.841281   12.355782    1.342860
C       1.892799   10.014958    8.390897
H       1.150396   10.133285    7.793740
H       1.811929   10.627173    9.126697
H       1.897170    9.114640    8.723641
C       4.588471   10.054400    8.809798
H       4.518529    9.148938    9.119765
H       4.417259   10.656326    9.538666
H       5.472214   10.208740    8.468141
Cl      3.100751   13.067805    9.083420
N       3.851897   12.211732    4.925802
O       3.420589   14.422225    6.385519
O       3.569944    9.255261    6.534065
Pt      3.443175   12.442830    6.895231
S       3.402448   10.331698    7.524375
