22
7100554
W      -2.511558    4.627989    7.591617
C      -3.062920    2.528102    7.124457
N      -4.080499    2.127846    6.375022
H      -4.656067    2.692256    6.020586
C      -4.179513    0.683392    6.180903
H      -4.085518    0.439830    5.225761
H      -5.037275    0.329738    6.525682
C      -3.001999    0.182463    6.999873
H      -3.303681   -0.390282    7.749307
H      -2.362845   -0.324111    6.438763
N      -2.406091    1.431414    7.490482
H      -1.678480    1.452010    7.984954
C      -1.771495    4.019276    9.400768
O      -1.355483    3.715211   10.410959
C      -0.733909    4.306835    6.704348
O       0.287149    4.162072    6.183801
C      -4.313610    5.028542    8.459146
O      -5.310268    5.316454    8.930439
C      -3.317228    5.256563    5.827433
O      -3.804723    5.659598    4.879050
C      -1.922433    6.492746    7.979160
O      -1.559598    7.578486    8.164587
