30
7100772
Fe     -2.501488    5.872926    2.776366
S      -1.472758    2.929131    3.737693
S      -0.442930    3.846669    1.309819
N      -1.446079    4.085169    2.589294
O      -0.367011    7.653549    1.881672
O      -1.894089    6.417853    5.588708
O      -2.018104    3.497044    4.923006
O      -0.265877    2.180501    3.812459
O      -0.351452    2.490415    0.916592
O      -0.712972    4.876205    0.364134
C      -4.403677    6.620764    3.184609
H      -4.655368    7.036097    3.979198
C      -3.864143    7.260409    2.061550
H      -3.682468    8.169546    1.983342
C      -3.648604    6.279937    1.077074
H      -3.303101    6.424987    0.225238
C      -4.040785    5.058508    1.600125
H      -4.006463    4.242901    1.154343
C      -4.501608    5.255870    2.914637
H      -4.812332    4.598788    3.494311
C      -1.152745    6.925130    2.235483
C      -2.095442    6.137265    4.510383
C      -2.766313    1.704928    3.200564
C       1.268523    4.294421    1.967388
F      -2.429505    1.097780    2.112541
F      -3.891600    2.235191    3.012553
F      -2.880260    0.808474    4.100576
F       1.866174    5.037900    1.085520
F       1.158236    5.002232    3.059165
F       1.970054    3.245783    2.225785
