30
7101961
Rh     10.244290    1.505844    2.645232
I       7.939411    0.695781    3.731642
I      10.561939   -0.726628    1.103628
I      12.427267    2.620440    1.604634
N       9.459004    4.198807    3.033093
N      10.046657    5.065150    4.910136
N      10.432415    3.750869    4.822510
N       8.971342    3.896900    1.789417
N       7.981265    3.777942   -0.121447
N       8.565913    2.565391    0.215222
N      11.347635    0.472550    4.061547
C      10.083812    3.188074    3.678759
C       9.441792    5.326857    3.792519
H       9.056580    6.159563    3.548088
C      11.097384    3.138850    5.940127
H      10.526396    2.435768    6.315228
H      11.274964    3.816501    6.625763
H      11.944304    2.745879    5.641891
C       9.198098    2.601488    1.385107
C       8.245176    4.565526    0.877798
H       7.966512    5.470427    0.951589
C       8.414560    1.448826   -0.713307
H       9.239624    1.338893   -1.229840
H       7.665992    1.629314   -1.322078
H       8.231516    0.628426   -0.209073
C      11.974356   -0.138648    4.779466
C      12.793956   -0.922950    5.717219
H      12.345908   -0.963150    6.588868
H      13.670928   -0.496342    5.820218
H      12.914164   -1.831133    5.368252
