25
7102713
Cr      3.958123    0.969421    2.790169
O       1.830829    2.654953   -0.051392
O       3.361641    4.441172    4.755337
O       2.898004    0.762134    5.601733
O       5.171532   -1.782797    3.090864
O       1.376308   -0.219602    1.815503
C       3.941216    3.156275    2.850685
C       5.184399    2.724872    3.389777
C       5.992610    1.858816    2.654556
C       5.594499    1.421296    1.363462
C       4.395101    1.858578    0.817029
C       3.541971    2.716670    1.565884
C       2.213383    3.093612    1.024694
C       1.387496    4.001814    1.828088
C       1.760027    4.424928    3.033179
C       3.038268    4.032962    3.650933
C       3.310385    0.833742    4.527744
C       4.704886   -0.747094    2.977592
C       2.372107    0.218573    2.199370
H       5.405514    3.079419    4.289663
H       6.780801    1.523158    3.125475
H       6.133004    0.851326    0.933447
H       4.081412    1.588588    0.083905
H       0.505417    4.275224    1.373951
H       1.237946    4.968971    3.534514
