21
7103277
C       6.594300   10.120509    6.942188
H       6.419917    9.727759    6.061082
H       7.535820   10.386334    7.000155
H       6.023527   10.907208    7.067398
C       4.887109    8.760252    7.976560
H       4.669497    8.247760    7.157827
H       4.316336    9.569701    8.001834
C       4.655576    7.922065    9.192486
H       4.773541    8.465689   10.012147
H       3.735305    7.556855    9.186689
C       5.432238    5.946338   10.285289
H       5.495250    6.450448   11.122804
H       6.125372    5.254235   10.267204
H       4.549334    5.526047   10.223148
Cl      7.777391    8.485326   10.633326
Cl      6.996772    6.668496    6.384309
Cl      8.795551    5.583283    9.074696
Nb      7.767353    7.579689    8.440833
O       9.048112    8.492271    7.811468
O       6.301220    9.136837    7.979342
O       5.619076    6.849904    9.161184
