28
7104327
Cu      2.835950   10.914975    5.320233
S       3.837443    8.976621    5.753334
C       2.673745    7.750651    5.451552
N       1.449523    7.934750    4.986911
H       1.129777    8.720337    4.750370
C       0.685399    6.691316    4.910855
H       0.343913    6.535887    3.994692
H      -0.075068    6.697429    5.544424
C       1.729826    5.632418    5.303696
H       1.425276    5.096566    6.078212
H       1.932212    5.026710    4.547321
N       2.885761    6.457590    5.649786
H       3.642705    6.129850    5.956802
S      -0.468691   10.914975    2.132154
C       0.394388   10.914975    3.508352
N       1.062375   10.914975    4.478242
S       3.837443   12.853329    5.753334
C       2.673745   14.079299    5.451552
N       1.449523   13.895200    4.986911
H       1.129777   13.109613    4.750370
C       0.685399   15.138634    4.910855
H       0.343913   15.294063    3.994692
H      -0.075068   15.132521    5.544424
C       1.729826   16.197532    5.303696
H       1.425276   16.733384    6.078212
H       1.932212   16.803240    4.547321
N       2.885761   15.372360    5.649786
H       3.642705   15.700100    5.956802
