29
7105474
Au     -1.061750    3.972552   13.815518
Cl     -2.846847    4.527579   15.142357
N       1.749521    3.520314   13.009586
N       2.590282    3.110421   11.992325
C       0.459304    3.510940   12.639428
C       0.474291    3.130873   11.263934
C      -0.548222    2.947656   10.317884
H      -1.458194    3.087412   10.548812
C      -0.192411    2.559067    9.043830
H      -0.868101    2.415050    8.392360
C       1.159295    2.371589    8.695842
H       1.369337    2.115938    7.804542
C       2.181361    2.542023    9.588486
H       3.089804    2.415050    9.339587
C       1.815229    2.916978   10.893945
C       2.270815    3.674557   14.375507
H       1.612883    4.173929   14.922177
H       3.108389    4.202050   14.347795
C       2.543559    2.334946   15.021602
H       1.716096    1.811713   15.049818
H       2.874350    2.473850   15.933224
H       3.217731    1.851765   14.498948
C       4.036794    3.331985   12.016509
H       4.470955    2.691153   11.398629
H       4.375137    3.149620   12.928635
C       4.425963    4.743178   11.618641
H       4.074899    4.938325   10.723478
H       5.402903    4.822430   11.610243
H       4.052061    5.379749   12.261881
