30
7105189
Cr      8.631319    4.443495   18.822518
O       9.705599    2.351651   16.895578
O       5.993071    2.955113   19.137706
O       7.505439    6.589047   20.651070
O      11.230672    6.014292   18.662902
O       9.802837    2.929994   21.159953
N       7.465247    6.020273   16.377260
N       7.424796    6.700290   13.986683
B       6.988135    6.939522   15.307700
C       9.302388    3.132145   17.622416
C       6.985542    3.496376   19.002543
C       7.935877    5.775060   19.967553
C      10.255315    5.429370   18.701410
C       9.355544    3.501758   20.273499
C       7.890499    5.432959   17.274304
C       6.093550    8.095611   15.573213
H       5.751274    8.272044   16.440991
C       5.786280    8.893450   14.505964
H       5.228785    9.651217   14.638816
C       6.271171    8.622519   13.221914
H       6.035208    9.194882   12.501622
C       7.064629    7.564516   12.994140
H       7.386161    7.412005   12.112691
C       8.355942    5.602813   13.621242
H       8.204252    5.345639   12.676834
H       8.169246    4.812152   14.186347
C       9.800244    6.019675   13.803193
H      10.388855    5.273869   13.560592
H       9.954527    6.266084   14.738937
H       9.993422    6.788208   13.227498
