29
7106549
Fe      6.603242   13.299822    8.692583
C       6.743674   13.028939    6.691454
H       5.979476   12.992861    6.047737
C       7.487063   14.186555    7.042845
H       7.311272   15.114017    6.714479
C       8.476909   13.815664    7.993904
H       9.118668   14.437548    8.443405
C       8.364552   12.412186    8.234172
H       8.932986   11.871633    8.854863
C       7.273333   11.920464    7.438085
C       6.509364   10.637351    7.602869
C       7.216796    9.411465    8.255196
C       6.275859    9.482378    9.477557
C       5.479678   10.657100    8.825431
C       5.376794   11.989665    9.518002
C       4.617837   13.075592    8.956977
H       3.931149   13.003746    8.234172
C       5.025226   14.272086    9.611707
H       4.702589   15.193327    9.395466
C       6.019130   13.946914   10.572777
H       6.514366   14.599279   11.146416
C       6.231489   12.538305   10.539440
H       6.875834   12.025588   11.106371
F       5.908188   10.268947    6.421052
F       7.052386    8.279197    7.551011
F       8.524810    9.538983    8.538511
F       5.555737    8.370637    9.668370
F       6.919285    9.772559   10.629140
F       4.236322   10.200989    8.446409
