25
7107903
Zn      1.838633    1.974319    3.166698
Cl     -2.307421   -0.358951    6.127289
Cl     -1.932965    2.068323   -1.085294
Cl      0.705648    3.755223    3.869287
Cl      4.050462    1.832303    3.151227
N       1.030968    0.374958    4.163171
N       1.283434    1.687127    1.181062
C      -0.196991    0.478734    4.701439
H      -0.688185    1.284840    4.595480
C      -0.755589   -0.574614    5.409529
C      -0.060881   -1.771954    5.554327
H      -0.441385   -2.503896    6.025214
C       1.203498   -1.864635    4.991035
H       1.706451   -2.667018    5.067279
C       1.724647   -0.768968    4.313965
H       2.598426   -0.828785    3.945127
C       0.020666    1.880841    0.765696
H      -0.658734    2.070756    1.402364
C      -0.305392    1.806552   -0.583623
C       0.669881    1.535521   -1.529568
H       0.460548    1.510446   -2.455441
C       1.961447    1.301990   -1.082271
H       2.651950    1.084154   -1.696913
C       2.231186    1.390520    0.275651
H       3.118417    1.235419    0.576064
