26
7107905
Zn      1.838524    1.974251    3.166711
Cl     -2.307824   -0.358850    6.127068
Cl     -1.932942    2.068064   -1.085255
Cl      0.705646    3.755094    3.869118
Cl      4.050543    1.832299    3.151319
N       1.030287    0.373988    4.163823
N       1.282802    1.686515    1.179889
C      -0.198034    0.479041    4.702352
C      -0.756769   -0.573960    5.411093
C      -0.061869   -1.772773    5.553806
C       1.204525   -1.865776    4.988820
C       1.726099   -0.770106    4.313704
C       0.019615    1.880939    0.765957
C      -0.308241    1.807272   -0.584666
C       0.669247    1.535172   -1.530871
C       1.963460    1.300960   -1.084095
C       2.232203    1.389952    0.275520
H      -0.757659    1.398177    4.580323
H      -0.494925   -2.607264    6.091318
H       1.777664   -2.780326    5.078084
H       2.721952   -0.837477    3.893425
H      -0.754055    2.097918    1.492110
H       0.430644    1.506963   -2.586841
H       2.750764    1.053313   -1.785225
H       3.244025    1.213784    0.619113
X       0.000000    0.000000    0.000000
