25
7107902
Zn      6.220200    6.220200    3.127031
Cl      7.628727    7.628727    4.072973
Cl      1.761561    6.845828   -0.223032
Cl      2.964572    9.475828   -1.505627
N       5.059137    7.381263    1.859639
C       3.722292    8.718108   -0.183055
C       3.209499    7.541246    0.368319
C       3.904420    6.900690    1.383327
H       3.595276    6.124409    1.798988
Cl      5.594572   10.678839   -0.223032
C       4.899154    9.230901    0.368319
C       5.539710    8.535980    1.383327
H       6.315991    8.845124    1.798988
Cl      4.811673    4.811673    4.072973
Cl     10.678839    5.594572   -0.223032
Cl      9.475828    2.964572   -1.505627
N       7.381263    5.059137    1.859639
C       8.718108    3.722292   -0.183055
C       9.230901    4.899154    0.368319
C       8.535980    5.539710    1.383327
H       8.845124    6.315991    1.798988
Cl      6.845828    1.761561   -0.223032
C       7.541246    3.209499    0.368319
C       6.900690    3.904420    1.383327
H       6.124409    3.595276    1.798988
