25
7109888
C       2.789344    6.166574   -0.322918
C       3.854306    5.618016    0.447285
H       3.768123    4.979913    1.146094
C       5.070958    6.194415   -0.014737
H       5.938241    6.009305    0.324610
C       4.764532    7.092876   -1.069621
H       5.390559    7.615850   -1.556338
C       3.362520    7.074817   -1.271357
H       2.886177    7.576721   -1.921773
C       2.448149    8.631698    1.833252
H       1.520749    8.442073    1.912811
C       3.480722    8.063576    2.614209
H       3.370509    7.425473    3.308835
C       4.716077    8.620411    2.171703
H       5.575991    8.421004    2.522203
C       4.432185    9.524139    1.117217
H       5.070700   10.035073    0.634285
C       3.038753    9.533169    0.910701
H       2.575212   10.052380    0.264866
C       1.325632    5.836235   -0.204126
H       1.116354    5.597699    0.733858
H       0.786808    6.630854   -0.446090
C       0.969800    4.715040   -1.086349
Fe      3.791665    7.646702    0.642549
N       0.725244    3.830876   -1.774404
