24
7109889
C       0.427794    7.470943    1.703393
H       0.838081    8.094988    1.149465
C      -0.948455    7.120112    1.689090
H      -1.596998    7.474048    1.124759
C      -1.159308    6.131783    2.686420
H      -1.970747    5.726102    2.891867
C       0.086016    5.872023    3.318366
H       0.232927    5.266606    4.008825
C       1.067202    6.699943    2.709825
H       1.969224    6.730990    2.932177
C       1.586341    4.361069    0.369285
C       0.840365    5.101022   -0.586435
H       1.197368    5.711613   -1.191075
C      -0.487168    4.777098   -0.478510
H      -1.182144    5.132069   -0.984327
C      -0.609721    3.767036    0.578634
H      -1.394518    3.353076    0.858198
C       0.667572    3.544533    1.087051
H       0.883753    2.960849    1.778810
C       2.939754    4.591851    0.725567
C       3.395713    3.901573    2.008964
Fe      0.189767    5.486522    1.307842
N       3.790015    3.433798    2.951681
O       3.748149    5.242803    0.131330
