13
7110127
Fe     10.106747    1.157530    0.581070
P      12.185648    1.146104   -0.195999
O       7.398752    1.154414    1.660458
O       9.245399    2.729182   -1.756704
O      11.098917    2.614225    2.942231
O      10.068526   -1.772826    0.410167
C       8.445851    1.152337    1.253889
C       9.608652    2.117696   -0.837425
C      10.721505    2.051907    2.027450
C      10.090173   -0.622566    0.463237
H      13.035272    2.132931    0.224872
H      13.102949    0.124652    0.107939
H      12.502231    1.218818   -1.448179
