21
7110822
Cr      0.763661    1.279908    2.356095
O      -1.219879    2.529855    0.530428
O      -0.695111    2.846953    4.421485
O      -1.105975   -1.046507    2.697125
N       2.518182   -1.697451    2.148891
H       2.430572   -2.136290    1.414163
H       2.642272   -2.119004    2.888304
C      -0.430634    2.030816    1.216424
C      -0.118543    2.219820    3.646460
C      -0.372045   -0.138288    2.570609
C       2.459007   -0.342842    2.141393
C       2.258359    0.361335    0.954021
H       2.059710   -0.102729    0.172436
C       2.352310    1.772963    0.924032
H       2.259882    2.219292    0.113395
C       2.581708    2.512930    2.094536
H       2.678122    3.437550    2.072981
C       2.660092    1.790195    3.311897
H       2.785189    2.257001    4.106602
C       2.556903    0.405352    3.351257
H       2.550825   -0.035010    4.170328
