23
7112398
Br      7.166111    0.803630    1.762552
Zn      9.236213    1.883855    1.500098
Br     11.078453    0.808135    2.454324
N       9.769253    2.816385   -0.247361
N       8.769192    3.837844    1.980565
C       9.524135    4.146953   -0.268324
C       8.933978    4.704217    0.993636
C       8.506179    6.070807    1.056525
H       8.531376    6.646809    0.303541
C      10.330675    2.237710   -1.308078
H      10.487854    1.300711   -1.292147
C       8.279239    4.270244    3.152804
H       8.186102    3.642451    3.856316
C       9.783445    4.949741   -1.400315
H       9.544122    5.862383   -1.441402
C       7.901747    5.580425    3.387587
H       7.550640    5.848735    4.232807
C      10.693520    2.971656   -2.448454
H      11.119393    2.562584   -3.192214
C      10.415305    4.306197   -2.423299
H      10.669321    4.830150   -3.176282
C       8.047104    6.499616    2.322678
H       7.843202    7.414821    2.456001
