19
7112824
C       0.765623    2.323107    5.405484
C       0.423032    3.681879    5.593892
C       0.881256    2.039562    7.768090
H       1.054347    1.466856    8.506718
C       0.553748    3.359030    7.976507
H       0.478335    3.704338    8.858524
C       0.336127    4.178785    6.879404
H       0.123534    5.095395    7.014457
C       1.231747    0.115103    6.345858
H       0.443142   -0.334078    5.975711
H       1.441468   -0.262490    7.224541
H       1.994497   -0.015441    5.743952
C       0.173091    4.559185    4.406753
H      -0.249222    5.392977    4.701871
H      -0.419440    4.095967    3.778170
H       1.024182    4.761316    3.966578
Au      0.976205    1.517810    3.571421
Cl      1.192245    0.611728    1.469751
N       0.956669    1.555289    6.484246
