23
7112400
Br      7.213052    0.837352    1.817290
Zn      9.274179    1.920489    1.524532
Br     11.134196    0.865075    2.464393
N       9.792475    2.805632   -0.230325
N       8.829358    3.878524    1.957341
C       9.545178    4.137566   -0.295288
C       8.992711    4.721811    0.978670
C       8.593779    6.123363    1.054602
H       8.637432    6.684378    0.304569
C      10.344552    2.163217   -1.282396
H      10.511759    1.241327   -1.252867
C       8.347143    4.351969    3.146931
H       8.253958    3.749669    3.865748
C       9.818279    4.923517   -1.442695
H       9.619652    5.839210   -1.495003
C       7.985191    5.697694    3.349415
H       7.657281    5.990116    4.182128
C      10.667148    2.951308   -2.455113
H      11.057213    2.541342   -3.203458
C      10.400581    4.250974   -2.455113
H      10.633604    4.736557   -3.220332
C       8.134495    6.581809    2.286376
H       7.922458    7.491502    2.401117
