24
7113073
Mo     -0.862336    1.846581    3.708256
O      -1.839918    2.414819    4.947953
O      -1.182125   -0.083641    3.855498
O      -2.024413    0.572123    2.829324
O       0.075744    3.438553    3.116765
O      -1.104915    3.120445    2.293807
N       0.789323    1.628769    5.082197
N       0.607237    1.155876    6.328634
H      -0.157047    0.862391    6.623589
N       0.699977    0.893076    2.173470
N       0.617011   -0.393211    1.776010
H       0.031368   -0.921781    2.146554
C       1.747454    1.187303    7.024974
H       1.863876    0.901984    7.923409
C       2.726510    1.710306    6.203250
H       3.640040    1.858410    6.414989
C       2.085837    1.971498    5.001000
H       2.503770    2.339715    4.231426
C       1.406132   -0.644009    0.718546
H       1.494084   -1.473612    0.263553
C       2.061293    0.523002    0.420451
H       2.699447    0.668137   -0.268039
C       1.587294    1.450846    1.346811
H       1.859297    2.360749    1.385055
