29
7114364
Hf      1.963562   -1.512892    8.639160
Cl      3.582354   -3.224704    8.481600
Cl      1.055026   -2.456666   10.627200
Cl      0.176084   -2.353203    7.335600
Cl      2.848423   -0.392704    6.728400
N       3.484694   -0.293018    9.986400
N       0.790160    0.491635    9.105600
C       4.616664    0.203904    9.308400
H       5.177470    0.678170    9.927600
H       4.335521    0.797491    8.610000
H       5.107924   -0.528640    8.929200
C       3.980393   -1.027072   11.143200
H       4.359196   -1.861568   10.854000
H       3.255340   -1.199258   11.748000
H       4.653657   -0.508250   11.588400
C       2.632386    0.883584   10.524000
H       2.209192    0.591322   11.347200
H       3.236104    1.606310   10.753200
C       1.664663    1.389568    9.714000
H       2.101174    1.897818    9.013200
H       1.136410    2.010342   10.236000
C       0.306298    1.163008    7.910400
H       0.008878    2.045082    8.137200
H      -0.424674    0.662310    7.538400
H       1.015074    1.217382    7.266000
C      -0.435032    0.286976    9.981600
H      -0.164247   -0.053619   10.836000
H      -1.028391   -0.337574    9.560400
H      -0.886340    1.126758   10.100400
