29
7116317
C       2.186849    3.166674    4.593144
H       1.795925    3.909877    4.992929
C       1.893874    1.914228    5.079500
H       1.307383    1.805815    5.792498
C       2.492848    0.819311    4.482255
H       2.327107   -0.038896    4.801305
C       3.332481    1.011537    3.413245
H       3.735310    0.273976    3.013461
C       3.595128    2.291015    2.909381
C       4.353050    2.471994    1.676955
C       5.228712    1.468522    1.275225
H       5.483183    0.816578    1.888033
C       5.736557    1.417191   -0.030154
H       6.363564    0.769286   -0.259714
C       5.317601    2.307429   -0.956176
H       5.597306    2.215345   -1.838425
C       4.449696    3.391473   -0.602109
C       3.992308    4.297138   -1.565093
H       4.236472    4.180264   -2.455124
C       3.196348    5.346769   -1.220753
H       2.846699    5.903113   -1.878306
C       2.905216    5.585149    0.130343
H       2.405861    6.333175    0.368658
C       3.349795    4.728783    1.104028
C       4.048825    3.533277    0.759688
N       3.029188    3.346560    3.550398
Cl      3.792959    5.828726    5.351373
Cl      3.760667    7.445676    2.476038
Au      3.411761    5.270527    3.052272
