25
7118905
Pt     -1.428118    5.908250    4.383058
Br      0.150720    6.908044    2.823478
N      -0.558342    6.802759    5.899596
N       0.585067    7.535382    7.929828
C      -0.013053    7.176160    6.828804
C      -0.233973    7.700813    9.143059
H      -0.613910    8.604775    9.160591
H       0.325650    7.567287    9.936392
H      -0.958826    7.041452    9.139552
C       1.857291    8.255007    7.875478
H       2.371160    7.951323    7.098801
H       2.367179    8.077759    8.694234
H       1.686102    9.216870    7.798337
Br     -3.006956    4.908456    5.942638
N      -2.297893    5.013741    2.866520
N      -3.441303    4.281118    0.836287
C      -2.843183    4.640340    1.937312
C      -2.622262    4.115687   -0.376943
H      -2.242326    3.211725   -0.394475
H      -3.181885    4.249213   -1.170276
H      -1.897409    4.775048   -0.373437
C      -4.713527    3.561493    0.890637
H      -5.227395    3.865177    1.667315
H      -5.223414    3.738741    0.071882
H      -4.542338    2.599630    0.967779
