25
7122352
Au      4.907633    2.562702    5.028800
F       1.924409    3.705211    5.029631
F       4.785613    1.461277    1.999325
F       0.015221    3.753768    3.170877
F       0.416250    2.580544    0.756005
F       2.831460    1.476841    0.175567
N       7.167982    2.592618    7.176883
C       3.450057    2.575848    3.608608
C       2.205023    3.146651    3.837556
C       9.445939    2.074774    7.724936
H       9.588235    1.773483    6.835109
C       6.332500    2.579274    6.390391
C      10.465988    2.035985    8.654965
H      11.318539    1.696773    8.410097
C       7.976652    3.028485    9.407055
H       7.124159    3.368005    9.652350
C       1.200812    3.174789    2.896851
C      10.248701    2.491999    9.946804
H      10.955273    2.464100   10.581169
C       8.210896    2.562572    8.118775
C       3.611461    2.040821    2.346426
C       1.403626    2.592927    1.665511
C       9.008474    2.987892   10.320476
H       8.870464    3.300685   11.207230
C       2.622206    2.040505    1.378436
