27
7124854
Au     11.336439    0.635086    3.269739
N      14.351631    0.470857    3.795475
N      13.270835    1.119356    5.512890
C      13.101001    0.734109    4.243263
C      15.282876    0.703432    4.780877
H      16.225616    0.604267    4.707139
C      14.597382    1.100807    5.874874
H      14.959775    1.323394    6.723527
C      12.176857    1.564530    6.377631
H      12.196157    2.541202    6.452709
H      12.281089    1.166442    7.267844
H      11.321047    1.282729    5.992855
C      14.680898   -0.007134    2.462835
H      13.867027   -0.322466    2.017728
H      15.323294   -0.744097    2.529869
H      15.076011    0.724121    1.942650
C       9.484703    0.632804    2.453451
C       8.375365    0.200471    3.176079
C       7.067356    0.293216    2.737675
C       6.821441    0.838269    1.501565
C       7.854518    1.247772    0.721288
C       9.143178    1.123636    1.205274
F       8.552541   -0.324606    4.417552
F       6.045707   -0.165513    3.494759
F       5.545707    0.949562    1.067184
F       7.607072    1.786404   -0.484657
F      10.131583    1.573805    0.376598
