28
7126345
Cl      8.479573    2.407078   -2.059079
N       9.525402    2.488869    6.855640
N       8.254648    2.886342    6.769431
C       9.064568    2.522589    2.132689
C      10.088727    2.251389    5.669929
H      10.962921    1.917326    5.506038
C       9.143307    2.592183    4.741519
C      10.153140    2.335332    8.199181
H      10.518968    3.196815    8.489455
H      10.875273    1.674301    8.148795
H       9.478692    2.033224    8.842821
C       9.113774    2.535504    3.335642
N       8.059586    2.962392    5.459047
C       6.033964    0.987942    4.944443
H       6.942068    0.707416    4.964086
C       4.979178    0.051657    4.871497
H       5.181931   -0.876212    4.862067
C       6.762825    3.415110    5.004127
H       6.858716    3.781559    4.089537
H       6.460879    4.152020    5.591836
C       5.693211    2.339637    4.985559
C       3.683450    0.446260    4.814466
H       2.996788   -0.206334    4.740525
C       3.350794    1.777148    4.864865
H       2.439512    2.046418    4.848194
C       4.363498    2.725631    4.937812
H       4.142659    3.649109    4.955146
Au      8.828000    2.484349    0.193242
