28
7127645
C       6.667454    8.300468    9.172532
H       6.825003    8.428027    8.224326
H       7.326131    8.815209    9.664738
C       5.206838   10.236921    9.293305
H       5.480801   10.446528    8.386386
H       5.796937   10.705279    9.904579
C       3.782916   10.682584    9.513684
H       3.774853   11.447368   10.110715
H       3.398794   10.960130    8.667277
C       3.652117    9.085222   11.315321
H       3.097835    8.415989   11.745746
H       3.775579    9.817017   11.940527
C       5.001086    8.478491   10.986619
H       4.984006    7.522762   11.149675
H       5.688067    8.872527   11.546919
C       4.272125    8.060682    8.672008
H       4.358416    7.099044    8.760471
H       4.405197    8.294425    7.739353
C       2.890492    8.501501    9.123973
H       2.379535    8.791727    8.351847
H       2.428621    7.746127    9.520022
F       6.774336    6.992545    9.487538
I       1.315043   12.148306   12.185634
I      -0.027910   10.801871    8.327493
I      -0.030952    8.123172   11.620615
N       5.303190    8.750975    9.526135
N       2.954195    9.592648   10.097629
Zn      0.986585   10.221783   10.582713
