21
7157136
C       2.339319    5.195595    0.657449
H       3.164393    5.350317    0.212938
C       1.129622    5.902132    0.437621
H       1.001717    6.612440   -0.180117
C       0.148398    5.364272    1.299632
H      -0.753784    5.655369    1.364705
C       0.739468    4.317197    2.051729
H       0.306749    3.777380    2.702064
C       2.106310    4.226493    1.647693
H       2.747650    3.615800    1.990849
C       2.967874    6.414530    3.955888
C       3.122835    7.412275    2.972768
C       1.876344    8.080621    2.785507
C       0.932703    7.474336    3.666855
H       0.016810    7.713079    3.754368
C       1.604009    6.451130    4.394526
H       1.215569    5.889274    5.055629
Cl      1.615690    9.434818    1.734606
F       4.294676    7.772068    2.361116
Fe      1.717291    6.091178    2.389307
I       4.468311    5.203233    4.699029
