29
7200550
Zn      8.342345   -4.751645    6.747844
S       4.779349   -1.676189    7.045488
S       7.676288   -7.253706   10.616452
Cl      8.344404   -5.765056    4.778179
N       9.970796   -3.451161    6.823106
N      11.862202   -1.777605    6.925977
N       8.412148   -5.905710    8.327964
N       6.755949   -3.611622    7.007668
C       9.515558   -2.124852    6.346196
H       8.757912   -1.835270    6.877567
H       9.225073   -2.197561    5.423388
C      10.627640   -1.086871    6.444528
H      10.786973   -0.685719    5.576559
H      10.375091   -0.384855    7.064776
C      10.469390   -3.330815    8.214504
H      10.768547   -4.198306    8.526519
H       9.749681   -3.032458    8.791259
C      11.626995   -2.335457    8.286362
H      11.410215   -1.620905    8.904719
H      12.426914   -2.781738    8.604050
C      11.093717   -3.899950    5.973669
H      10.778302   -4.031578    5.064098
H      11.427558   -4.748637    6.300812
C      12.225308   -2.869490    5.975560
H      13.055575   -3.289446    6.253537
H      12.347789   -2.508454    5.084899
C       8.128166   -6.462308    9.275355
C       5.919178   -2.813078    7.030738
H      12.573240   -1.215992    6.958880
