21
7201823
Ru      1.843853    2.205850    6.436333
C       3.612353    1.490978    5.376067
C       2.443016    1.050338    4.683076
C       1.715510    2.205850    4.252782
C       1.795098    1.491684    8.499309
C       0.616995    1.046102    7.822785
C      -0.112474    2.205850    7.404617
H       4.256345    0.927339    5.754282
H       2.208110    0.186174    4.527604
H       0.876513    2.205850    3.798745
H       2.460546    0.946751    8.853527
H       0.371641    0.134998    7.697054
H      -0.960658    2.205850    6.897990
C       3.612353    2.920722    5.376067
C       2.443016    3.361362    4.683076
H       4.256345    3.484361    5.754282
H       2.208110    4.225526    4.527604
C       1.795098    2.920016    8.499309
C       0.616995    3.365598    7.822785
H       2.460546    3.464949    8.853527
H       0.371641    4.276702    7.697054
