29
7204688
Hg      1.709587    2.080033    5.822519
S       2.080753    2.639574    8.100818
S       4.432951    3.482912    6.457865
N       6.161236    5.065208    8.412239
H       6.042151    4.834647    7.571557
H       6.851259    5.561184    8.638844
C       3.645991    3.383359    7.980941
C       4.161283    3.886484    9.183058
C       5.299820    4.664853    9.337222
C       5.446728    5.125083   10.747125
H       5.182962    6.075033   10.840448
H       6.379372    5.016951   11.059577
C       4.494052    4.209985   11.529287
H       4.980407    3.430722   11.900002
H       4.066683    4.702386   12.273810
C       3.457905    3.765841   10.510207
H       3.177444    2.831083   10.678035
H       2.659927    4.350288   10.541401
C       1.559229    1.719383    3.787067
C       2.381692    2.413749    2.896887
H       2.989357    3.063432    3.230221
C       2.324932    2.168889    1.533904
H       2.901435    2.645204    0.946122
C       1.447935    1.248429    1.020884
H       1.413434    1.079529    0.087652
C       0.611004    0.567468    1.894823
H      -0.002226   -0.070598    1.549372
C       0.655522    0.801604    3.253423
H       0.065663    0.332438    3.830893
