29
7204896
Hg     -1.333946    7.292595    4.584399
S      -0.953955    5.994163    2.631664
S       1.785206    6.673622    4.464332
P       1.056010    5.675603    2.925283
C      -1.557259    8.449894    6.276261
C      -2.720681    9.133386    6.527312
C      -2.829870    9.939866    7.662496
C      -1.772786   10.072935    8.535715
C      -0.612214    9.371298    8.295580
C      -0.520661    8.560785    7.204056
C       1.867414    6.052632    1.353489
C       1.950044    7.572847    1.036947
C       1.283375    3.909412    3.089012
C       0.509570    3.256163    4.213281
H      -3.453508    9.058787    5.926974
H      -3.641878   10.401576    7.833865
H      -1.843273   10.641504    9.293233
H       0.123909    9.451946    8.890460
H       0.272642    8.056735    7.070890
H       2.750792    5.703830    1.381869
H       1.382018    5.627214    0.656006
H       1.014645    3.502139    2.273644
H       2.207718    3.746100    3.235276
H       1.760827    8.070849    1.823936
H       2.823583    7.784548    0.730229
H       1.316154    7.790597    0.363477
H       0.641365    3.748116    5.015551
H      -0.415251    3.246082    3.997160
H       0.816951    2.365003    4.333349
