30
7205560
Ru      0.640000    6.074864    2.200739
C       0.063003    4.769029    3.928994
H       0.564299    4.420143    4.656825
C      -0.586305    6.022513    4.039909
H      -0.481105    6.541946    4.828461
C      -1.378931    6.498141    2.996334
H      -1.818768    7.335239    3.083771
C      -1.532351    5.761881    1.836175
H      -2.089981    6.089958    1.140728
C      -0.881684    4.556352    1.679922
H      -0.992187    4.064293    0.874369
C      -0.044554    4.038344    2.713783
C       2.675258    6.671028    2.315459
H       3.236260    6.577006    3.076484
C       2.568918    5.673725    1.290504
H       2.974522    4.785093    1.502620
C       2.642976    6.108941   -0.164349
H       2.395961    5.351145   -0.751310
H       3.569316    6.380502   -0.383751
C       1.687678    7.285067   -0.409658
H       2.182337    8.033472   -0.829032
H       0.968283    7.005413   -1.029003
C       1.079192    7.748551    0.903515
H       0.356011    8.434843    0.824984
C       1.861842    7.814782    2.087961
H       1.842755    8.560059    2.677351
C       0.675044    2.747722    2.500048
H       0.101303    2.003256    2.776122
H       1.497883    2.740894    3.031956
H       0.899345    2.652590    1.550386
