27
7205561
Ru      1.528985    5.030230    2.633786
C      -0.302407    6.197458    3.104614
H      -1.135218    6.066078    2.566893
C      -0.016668    5.342096    4.198463
H      -0.648866    4.598697    4.417351
C       1.254871    5.380213    4.824056
H       1.502512    4.655992    5.468253
C       2.262697    6.257061    4.349864
H       3.204446    6.155999    4.670676
C       1.969219    7.142026    3.276796
H       2.713927    7.644071    2.836050
C       0.709586    7.085208    2.650015
H       0.579812    7.561312    1.779211
C       2.702021    3.292696    2.198780
H       3.409226    2.941925    2.812301
C       1.319758    2.904047    2.286256
H       1.072117    2.355450    3.085417
C       0.542904    2.611207    1.017455
H      -0.423251    2.555981    1.227042
H       0.828048    1.737940    0.649145
C       0.778639    3.707446   -0.023749
H       1.117955    3.303200   -0.860908
H      -0.076197    4.164212   -0.225617
C       1.784084    4.714321    0.500316
H       1.894213    5.542468   -0.049478
C       2.950257    4.282621    1.212792
H       3.849740    4.698167    1.078609
