19
7206912
Ru      2.338749    1.695256    2.672182
C       3.817661    1.012722    1.707388
O       4.650726    0.552071    1.083075
C       3.160959    1.224524    4.310357
O       3.658171    0.907201    5.288715
I       3.491882    4.137478    2.899967
C       0.424094    2.606027    1.773210
C       0.844306    1.504121    0.994314
H       1.086203    1.530835    0.075795
C       0.843359    0.336227    1.832051
H       1.092039   -0.542134    1.568763
C       0.402474    0.729094    3.125558
H       0.286141    0.155273    3.873537
C       0.166411    2.130986    3.101622
H      -0.114354    2.661378    3.838631
C       0.244359    4.006058    1.270568
H       0.777072    4.132867    0.457764
H       0.539599    4.640043    1.957712
H      -0.701965    4.161616    1.069112
