25
7206905
Ru      5.410286    4.531033    2.487587
Br      3.077853    3.543793    2.753542
C       5.682034    4.506458    4.389704
O       5.865899    4.581414    5.497632
C       6.147540    2.815262    2.238172
O       6.622574    1.799649    1.980880
C       4.584932    6.187075    1.231323
H       3.653922    6.318917    1.094801
C       5.335702    6.757384    2.248673
H       5.015527    7.353296    2.915530
C       6.652348    6.295725    2.114777
H       7.382241    6.512595    2.684493
C       6.700838    5.450933    0.983220
H       7.468514    5.003446    0.647166
C       5.407619    5.396921    0.448947
H       5.141600    4.903836   -0.317676
Br      7.862035    6.258107    7.904224
Br      7.230895    8.301747    5.471115
Br      9.228941    5.914669    4.989219
C       8.588489    7.194763    6.333829
Br     10.499726    9.027626    5.222882
Br     11.130865    6.983986    7.655991
Br      9.132819    9.371065    8.137887
C       9.773272    8.090970    6.793277
C       9.090592    7.717151    5.813995
