16
7206906
Ru      1.695424    7.935471    6.984720
Cl      0.687995    6.309409    8.452420
C       0.467581    7.506296    5.622577
O      -0.209781    7.246869    4.758302
C       0.537134    9.269971    7.655180
O      -0.143244   10.105902    8.003523
C       3.763344    7.133703    7.408586
H       3.940983    6.387451    7.935291
C       3.532725    7.125162    6.006832
H       3.520798    6.381045    5.449003
C       3.324778    8.476744    5.623774
H       3.153706    8.776740    4.759499
C       3.420824    9.278512    6.762175
H       3.328244   10.204121    6.783722
C       3.677654    8.459662    7.867059
H       3.774552    8.742576    8.746896
