16
7206907
Os      1.826458    7.767783    6.954009
Cl      0.867658    6.157681    8.477604
C       0.630130    7.301772    5.574609
O      -0.019388    6.988122    4.687251
C       0.630958    9.110487    7.555659
O      -0.041340    9.973024    7.868142
C       3.924910    6.953621    7.420885
H       4.112502    6.199815    7.968327
C       3.716419    6.914937    6.023058
H       3.731163    6.141267    5.472038
C       3.474186    8.284542    5.587729
H       3.294338    8.565781    4.697986
C       3.553403    9.120942    6.726743
H       3.453020   10.066074    6.725550
C       3.810451    8.309634    7.884840
H       3.889111    8.610738    8.782931
