19
7206910
Ru      0.485807    2.899729    5.439617
C       0.866278    3.917826    3.889357
O       1.040171    4.494137    2.920618
C       2.316041    2.495696    5.694458
O       3.392284    2.167268    5.855083
Cl      0.667377    4.861548    6.820831
C      -1.427790    2.282530    6.557405
C      -1.710154    2.498672    5.182892
H      -2.311869    3.144418    4.830956
C      -0.925980    1.567249    4.418868
H      -0.925714    1.479960    3.472838
C      -0.157109    0.807828    5.323911
H       0.454835    0.118040    5.093496
C      -0.456192    1.254295    6.650900
H      -0.071282    0.920511    7.453032
C      -2.045856    3.015467    7.698955
H      -2.202789    3.947881    7.441954
H      -1.442761    2.985709    8.471066
H      -2.898653    2.592905    7.934909
