29
7209889
Zn      5.661850    6.455650   11.449575
N       6.603642    5.329077   10.187221
C       6.961811    4.427504    9.566044
S       7.449409    3.169027    8.705799
N       7.141291    7.500494   12.382944
C       6.911986    8.448321   13.284713
C       7.897148    9.082362   13.996724
H       7.692189    9.756581   14.603551
C       9.192580    8.693314   13.786815
H       9.884458    9.076482   14.276857
C       9.458687    7.734903   12.849476
H      10.335141    7.477171   12.675443
C       8.418039    7.158681   12.166318
H       8.604880    6.507001   11.530485
Cl      5.263709    8.851971   13.520574
N       4.720058    5.329077   12.711929
C       4.361889    4.427504   13.333106
S       3.874291    3.169027   14.193351
N       4.182409    7.500494   10.516206
C       4.411714    8.448321    9.614437
C       3.426552    9.082362    8.902426
H       3.631511    9.756581    8.295599
C       2.131120    8.693314    9.112335
H       1.439242    9.076482    8.622293
C       1.865013    7.734903   10.049674
H       0.988559    7.477171   10.223707
C       2.905661    7.158681   10.732832
H       2.718820    6.507001   11.368665
Cl      6.059991    8.851971    9.378576
