22
7209137
Hg     -1.180482   -1.953911    0.885974
Br     -1.818849   -0.040528   -0.653945
Br      0.612168   -3.723069    0.944333
N      -1.220350   -1.246595    3.152761
N      -3.404441   -2.278451    1.780848
H      -3.822244   -1.551729    1.455459
H      -3.704894   -2.910095    1.215374
C      -0.167618   -0.744616    3.782434
H       0.621430   -0.576236    3.280279
C      -0.162585   -0.448754    5.159623
H       0.618958   -0.102014    5.574715
C      -1.286128   -0.666187    5.885154
H      -1.305404   -0.453131    6.810316
C      -2.438981   -1.215859    5.253722
C      -3.638339   -1.487472    5.955508
H      -3.701321   -1.291025    6.883308
C      -4.707310   -2.033147    5.295055
H      -5.502885   -2.233166    5.773466
C      -4.638056   -2.302624    3.909072
H      -5.390037   -2.681199    3.468477
C      -3.498816   -2.024420    3.187059
C      -2.360473   -1.487750    3.867739
