29
7209888
Zn      4.232198    3.338522    3.932437
N       4.030254    3.195622    2.016236
C       4.014727    3.065201    0.871034
S       3.981515    2.896715   -0.727939
N       2.507694    3.576025    4.787827
C       1.363834    3.538470    4.954380
S      -0.224459    3.460933    5.189549
N       5.068873    1.713350    4.870077
C       5.975507    0.893655    4.361180
C       6.550888   -0.159800    5.049093
H       7.173714   -0.717888    4.643265
C       6.165288   -0.351279    6.357330
H       6.540536   -1.037233    6.861535
C       5.223285    0.476463    6.909331
H       4.946378    0.353834    7.788136
C       4.695350    1.485210    6.154269
H       4.053545    2.038698    6.536052
Cl      6.462036    1.202398    2.747400
N       5.463962    4.971691    4.164717
C       5.682210    5.618428    5.300976
C       6.484465    6.736519    5.424425
H       6.588844    7.167379    6.241358
C       7.115917    7.183985    4.301655
H       7.671458    7.927420    4.345639
C       6.927862    6.529967    3.099420
H       7.354006    6.823764    2.326764
C       6.098002    5.432697    3.070684
H       5.969469    4.993278    2.262254
Cl      4.923173    4.968242    6.708177
