24
7212329
Re      2.945922    1.998804   10.281159
O       2.193003    3.473460   10.000111
I       0.862123    0.281752   10.298391
S       5.185408    2.638901   10.421341
S       3.607124    0.831531    8.439508
S       3.199393    1.394631   12.471418
C       4.806228    2.113139   13.034882
C       5.838491    1.970850   11.995483
C       6.101687    1.697373    9.195944
C       5.277304    1.514719    7.928151
C       5.918788    0.489433    7.030986
C       5.074777    2.823574    7.184160
H       4.492177    2.686331    6.395038
H       4.603700    3.504743    7.805064
H       5.943770    3.226221    6.913370
H       5.363846    0.384482    6.204937
H       6.842205    0.787129    6.769768
H       5.979457   -0.389528    7.504186
H       6.709269    2.494594   12.185583
H       6.113286    1.019231   11.819058
H       5.123847    1.670127   13.869136
H       4.684890    3.110169   13.237291
H       6.954621    2.185797    8.977123
H       6.337226    0.798230    9.578881
