17
7214125
Re      2.450057    4.645000    2.067110
I       2.570736    4.645000   -0.697879
I       0.535867    4.645000    4.060987
O       0.778350    2.156209    1.389844
C       1.335508    3.084280    1.599451
C       4.714377    4.645000    1.748176
H       5.102279    4.645000    0.904529
C       4.356673    3.534845    2.522244
H       4.449760    2.642076    2.280457
C       3.855090    3.992842    3.680737
H       3.552284    3.458667    4.379138
C       4.356673    5.755155    2.522244
H       4.449760    6.647924    2.280457
C       3.855090    5.297158    3.680737
H       3.552284    5.831333    4.379138
O       0.778350    7.133791    1.389844
C       1.335508    6.205720    1.599451
