17
7214123
Re      1.919138    3.126000    3.217256
Br      0.885570    1.434209    4.882991
O       0.427107    1.179127    1.363577
C       1.002169    1.884353    2.073275
C       3.776891    3.126000    2.030337
H       3.734607    3.126000    1.102884
C       3.812548    1.979383    2.840018
H       3.762257    1.097851    2.550496
C       3.935394    2.420774    4.183353
H       4.003777    1.874350    4.931695
C       3.812548    4.272617    2.840018
H       3.762257    5.154149    2.550496
C       3.935394    3.831226    4.183353
H       4.003777    4.377650    4.931695
Br      0.885570    4.817791    4.882991
O       0.427107    5.072873    1.363577
C       1.002169    4.367647    2.073275
