17
7214124
Re      2.146508    3.053875    3.138395
Cl      0.334570    1.473189    3.572180
O       3.452210    1.089623    5.107481
C       2.965984    1.822553    4.372018
C       3.092811    1.915390    1.460736
H       3.337514    1.028545    1.598598
C       3.873605    3.053875    1.778418
H       4.735106    3.053875    2.128467
C       1.879767    2.361256    0.899099
H       1.195780    1.817666    0.581417
C       3.092811    4.192360    1.460736
H       3.337514    5.079205    1.598598
C       1.879767    3.746494    0.899099
H       1.195780    4.290084    0.581417
Cl      0.334570    4.634561    3.572180
O       3.452210    5.018127    5.107481
C       2.965984    4.285197    4.372018
