25
7216583
Ni     -1.868248    2.307200    5.123506
S      -3.687497    3.165340    5.940398
N      -0.908433    3.426653    6.336445
H      -0.336756    2.971674    6.793769
H      -0.514074    4.065286    5.860266
N      -1.624626    4.198181    7.343829
N      -3.725812    4.767598    8.056098
H      -4.579097    4.651315    7.951681
C      -2.909007    4.110046    7.198731
C      -3.213325    5.707090    9.030692
H      -2.690636    6.390944    8.607490
H      -3.942848    6.104851    9.447745
H      -2.662333    5.251187    9.703920
S      -0.048998    1.449060    4.306614
N      -2.828062    1.187747    3.910567
H      -3.399739    1.642726    3.453243
H      -3.222422    0.549114    4.386746
N      -2.111869    0.416219    2.903183
N      -0.010683   -0.153198    2.190914
H       0.842602   -0.036915    2.295331
C      -0.827488    0.504354    3.048281
C      -0.523170   -1.092690    1.216320
H      -1.045859   -1.776544    1.639522
H       0.206353   -1.490451    0.799267
H      -1.074162   -0.636787    0.543092
