19
7216582
Ni      2.660488    3.470500    4.676041
S       1.034547    3.967198    3.330744
N       1.333963    4.093108    0.697665
N       3.144328    3.257411    1.806822
N       3.658600    2.976995    3.130142
H       1.779853    4.053544   -0.065465
H       0.604444    4.567178    0.785575
H       4.439173    3.366385    3.086187
H       3.873833    2.110064    3.189060
C       1.944815    3.743281    1.840490
S       4.286428    2.973802    6.021338
N       3.987013    2.847892    8.654416
N       2.176647    3.683589    7.545259
N       1.662375    3.964005    6.221940
H       3.541122    2.887456    9.417546
H       4.716531    2.373822    8.566507
H       0.881802    3.574615    6.265895
H       1.447143    4.830936    6.163022
C       3.376160    3.197719    7.511592
