28
7217090
C       7.295700    5.050205    3.828114
H       7.203187    5.886725    3.431790
C       6.934888    3.904230    3.143389
H       6.586091    3.959338    2.283627
C       7.098542    2.684776    3.748305
H       6.844488    1.917495    3.286682
C       7.938148    3.672491    5.662816
H       8.265399    3.589122    6.529832
C       7.802239    4.935749    5.118663
C       8.173340    6.080311    5.996563
C       9.069179    8.335523    6.103579
C       9.748571    8.274762    7.303436
H       9.968892    7.452373    7.679808
C      10.094712    9.457477    7.940095
C       9.863176   10.682582    7.375990
H      10.122632   11.463994    7.805870
C       9.230960   10.724974    6.152553
H       9.069584   11.550189    5.758042
C       8.846888    9.612911    5.514987
H       8.434754    9.675085    4.684248
O       8.029693    5.970094    7.213651
N       7.612728    2.556189    4.978997
N       8.653743    7.178243    5.411598
H       8.715805    7.179656    4.554558
Br     10.922981    9.353194    9.648190
Hg      7.926943    0.343369    5.851002
I       9.550704    0.523673    7.896200
I       6.165162   -1.076736    4.498964
