29
7218834
Ag      6.692940    6.329193    5.651609
Cl      6.415493    5.885763    3.351925
N       8.300331    7.888457    7.825059
N       6.492299    7.113930    8.639265
C       9.345331    8.170955    6.888203
C       9.723184    9.424556    6.816500
H       9.329147   10.078808    7.347668
C       5.270277    6.478882    8.867582
H       4.859927    5.992341    8.190178
C       7.113931    7.841241    9.665749
C       7.210853    7.136021    7.498621
C       6.478614    7.927078   10.919608
H       6.876544    8.407606   11.608334
C       5.302131    7.318207   11.122452
H       4.880239    7.378033   11.948923
C       4.700341    6.576103   10.059172
H       3.887495    6.149389   10.208239
C       8.266703    8.338762    9.132694
C       9.316252    9.152964    9.798777
H       9.216600   10.073294    9.543100
H      10.182626    8.838787    9.531778
H       9.226213    9.073671   10.751672
N       9.892872    7.145351    6.138152
C      10.692905    9.725798    5.953234
H      10.981740   10.608579    5.903230
C      10.883048    7.495848    5.237147
H      11.275763    6.844704    4.701262
C      11.285952    8.798611    5.135254
H      11.944464    9.048699    4.527665
