12
7222575
Ru     -0.061005    8.074458    7.198577
O       0.971107    5.736326    5.549857
O       0.787845    9.497174    5.830878
C       1.511700    8.120952    8.291863
Cl     -0.912176    9.940830    8.446836
O       2.421326    8.145749    8.953848
H       0.815971   10.332000    6.114250
C      -0.907591    6.882145    8.389456
C       0.608420    6.600082    6.153052
H       0.395719    9.536436    5.091289
Cl     -2.037025    8.046872    5.823000
O      -1.464099    6.184735    9.073782
