29
7223839
Pd      7.693704    7.602094    4.358280
S       7.107494    7.315148    6.590055
S       7.040847    5.358611    4.508801
S       8.197623    7.934542    2.098957
S       8.200772    9.878178    4.201512
O       6.272023    4.895360    7.037547
O       8.701560   10.447941    1.630166
C       6.740563    5.717814    6.140103
C       6.006885    3.495308    6.666452
H       6.784258    3.107253    6.191223
H       5.213261    3.435528    6.077623
C       5.760335    2.764813    7.958657
H       5.017081    3.200787    8.447138
H       6.570582    2.816080    8.525712
C       5.412164    1.306507    7.700216
H       5.256015    0.851144    8.554112
H       4.602166    1.256275    7.151147
H       6.154398    0.872494    7.229721
C       8.407609    9.562586    2.541810
C       8.816274   11.865901    2.005994
H       9.598160   12.003252    2.597663
H       8.002584   12.163320    2.485009
C       8.984098   12.641538    0.727043
H       8.164738   12.552931    0.179867
H       9.739156   12.263123    0.211107
C       9.246897   14.102410    0.998737
H       9.351424   14.579132    0.148627
H       8.493181   14.483242    1.495739
H      10.067077   14.194360    1.526979
