23
7223820
Fe      1.634425    7.406197    2.584808
P       4.940331    7.174937    1.945107
H       5.566582    6.654752    1.131101
H       4.912777    8.295856    1.682151
C       3.252227    6.552371    1.687951
C       2.610778    5.609113    2.542561
H       3.009719    5.169478    3.285027
C       1.256764    5.434463    2.092054
H       0.609712    4.857818    2.479722
C       1.059011    6.275341    0.965786
H       0.252524    6.363418    0.469842
C       2.275526    6.960389    0.709597
H       2.421745    7.584460    0.008701
C       2.353236    8.718930    3.967555
H       3.255090    8.773884    4.259515
C       1.337347    7.929995    4.543740
H       1.438971    7.369912    5.304575
C       0.153275    8.104645    3.817708
H      -0.676853    7.676302    3.988824
C       0.420961    9.050914    2.761047
H      -0.199453    9.368596    2.115256
C       1.783060    9.413764    2.873190
H       2.240609   10.024285    2.306673
