29
7223840
Pd      3.633644    2.936000    5.833525
S       1.522987    1.967296    5.882643
S       2.359049    4.224728    4.358927
O      -0.128710    3.194368    4.299541
C       1.086818    3.174403    4.758990
C      -0.534224    4.204352    3.284275
H       0.225742    4.388733    2.662421
C      -0.930959    5.470355    4.004132
H      -0.156241    5.828547    4.485981
H      -1.649045    5.272469    4.642319
H      -1.245322    6.131542    3.353110
C      -1.664401    3.554322    2.538750
H      -1.354014    2.710515    2.147904
H      -1.970451    4.151504    1.824727
H      -2.404485    3.376400    3.155937
S       5.744301    3.904704    5.784407
S       4.908239    1.647272    7.308124
O       7.395998    2.677632    7.367509
C       6.180470    2.697597    6.908060
C       7.801511    1.667648    8.382776
H       7.041546    1.483267    9.004629
C       8.198247    0.401645    7.662919
H       7.423529    0.043453    7.181069
H       8.916333    0.599531    7.024731
H       8.512610   -0.259542    8.313940
C       8.931689    2.317678    9.128300
H       8.621302    3.161485    9.519146
H       9.237739    1.720496    9.842324
H       9.671773    2.495600    8.511113
