17
7223837
Pd      3.579329   11.983981    1.036366
S       2.739405   11.819642   -1.123549
S       5.481262   11.889472   -0.319211
S       4.404713   12.067370    3.215857
S       1.668032   11.952794    2.391621
O       4.664329   11.654218   -2.865837
O       2.480295   11.999981    4.949694
C       4.372881   11.762693   -1.599263
C       6.067668   11.627100   -3.243456
H       6.143224   11.477947   -4.209433
H       6.521434   10.903033   -2.764212
H       6.484948   12.482692   -3.011322
C       2.770381   12.004048    3.674562
C       1.080072   11.929472    5.350847
H       1.021125   11.917269    6.328590
H       0.677778   11.113202    4.988204
H       0.601626   12.711844    5.004250
