29
7224177
I       9.201030   14.941221    6.662246
I       9.488415   17.426195    5.564840
Ru      7.471853   12.054506    9.817384
Cl      8.636238   12.150653    7.733632
Cl      6.276467   11.628087   11.852938
O       9.412839   14.085045   10.932605
O       5.674489   14.384285    9.134856
N       6.310703   10.551931    8.901686
N       8.599547   10.307231   10.210595
C       8.664094   13.311988   10.572150
C       6.344763   13.509312    9.396149
C       5.209014   10.760517    8.156078
H       4.896625   11.650851    8.042977
C       4.513790    9.729725    7.548025
H       3.759400    9.911669    7.000007
C       4.938512    8.429183    7.754051
H       4.463487    7.701169    7.370488
C       6.069087    8.201001    8.529860
H       6.369461    7.314733    8.691013
C       6.757321    9.282042    9.068585
C       8.037526    9.146968    9.793529
C       8.671635    7.925025    9.991608
H       8.262028    7.121662    9.693634
C       9.908340    7.884980   10.628028
H      10.349386    7.057094   10.778177
C      10.484512    9.077480   11.037635
H      11.332975    9.080642   11.464116
C       9.804202   10.267107   10.815347
H      10.202065   11.081729   11.099749
