27
7224184
I       6.412077    1.484587    3.430872
I       7.142366    3.949163    8.189470
Ru      6.807467    2.687398    5.815583
O       9.050659    4.169123    4.486356
O       4.916438    4.840213    4.905066
N       5.361615    1.379375    6.668815
N       7.987805    1.065827    6.516294
C       8.213275    3.645748    5.005000
C       5.616865    4.047519    5.253840
C       4.035964    1.615431    6.732606
H       3.702492    2.442818    6.406240
C       3.143962    0.699821    7.254141
H       2.214908    0.898919    7.293536
C       3.624271   -0.507877    7.718752
H       3.027316   -1.156434    8.074212
C       4.982858   -0.765392    7.661285
H       5.328680   -1.591587    7.980242
C       5.835062    0.195521    7.131980
C       7.297945    0.022652    7.049214
C       7.951164   -1.117091    7.504608
H       7.451643   -1.849102    7.846515
C       9.335825   -1.177894    7.456358
H       9.795549   -1.950439    7.767002
C      10.034331   -0.104914    6.951991
H      10.985342   -0.114451    6.930305
C       9.330336    0.993103    6.476176
H       9.816133    1.721537    6.108066
