22
7225039
Se     11.543822    1.970187    5.863778
Se      9.085070    2.764908    3.530734
S       9.879020    1.056380    4.723966
Fe     12.486309    2.602845    2.526061
C      12.834532    2.072804    4.482808
C      13.588335    3.253922    4.135176
H      13.529809    4.103704    4.554700
C      14.428753    2.909917    3.056791
H      15.038584    3.500476    2.628167
C      14.226257    1.546563    2.709159
H      14.666365    1.070997    2.014806
C      13.238355    1.025195    3.596439
H      12.905933    0.135458    3.598259
C      10.475975    2.908942    2.232304
C      11.226266    4.098831    1.989326
H      11.141989    4.920351    2.457991
C      12.127550    3.828889    0.911850
H      12.716312    4.454531    0.505977
C      11.983579    2.444096    0.549658
H      12.490405    1.986072   -0.111024
C      10.955880    1.881798    1.348664
H      10.641015    0.986214    1.306803
