22
7225040
Te      7.671161    0.234413    2.250285
Se      8.427920   -1.522613    0.623179
Se      9.283283   -0.419195    4.053989
Fe     11.584166    0.063198    1.356035
C      10.146635   -0.811140    0.160172
C      10.475693    0.477175   -0.333919
H       9.890654    1.192649   -0.438438
C      11.845901    0.475436   -0.635260
H      12.316231    1.193228   -0.988182
C      12.403308   -0.789108   -0.318987
H      13.293741   -1.040741   -0.411290
C      11.330133   -1.606046    0.169674
H      11.394424   -2.492560    0.443867
C      10.910138    0.231920    3.295749
C      11.198267    1.509219    2.748720
H      10.594765    2.210777    2.655060
C      12.560227    1.533571    2.370007
H      13.010839    2.246725    1.979078
C      13.116175    0.259750    2.698496
H      14.002442    0.003479    2.580403
C      12.083943   -0.543852    3.236024
H      12.166683   -1.430367    3.503430
