22
7225038
Te      7.462895    0.275754    4.483355
Fe     11.275555    0.117497    5.319480
S       8.244545   -1.366703    6.069240
S       9.022023   -0.359209    2.772488
C       9.827461   -0.731512    6.516267
C      11.016054   -1.543291    6.488493
H      11.072432   -2.443876    6.190916
C      12.091031   -0.755991    6.985776
H      12.991254   -1.041195    7.090259
C      11.577775    0.539099    7.300546
H      12.081914    1.266626    7.645735
C      10.181930    0.557315    7.010905
H       9.593816    1.295089    7.125968
C      10.542200    0.272680    3.402954
C      11.754007   -0.508358    3.426760
H      11.846321   -1.412359    3.150344
C      12.778896    0.322207    3.938592
H      13.688768    0.074574    4.052332
C      12.215651    1.589402    4.254684
H      12.683515    2.329453    4.623679
C      10.831211    1.560938    3.925366
H      10.213982    2.274234    4.035139
