23
7225163
Zn     -0.252328    4.429366    1.936202
Br     -0.150696    3.179655   -0.036323
N       1.061616    5.999944    1.745680
C       0.477485    7.209528    1.817707
C       1.221380    8.362994    1.665909
H       0.817429    9.198108    1.734063
C       2.566128    8.259345    1.413428
H       3.077851    9.027828    1.307324
C       3.154470    7.034806    1.317392
H       4.064052    6.953367    1.140036
C       2.365839    5.921319    1.488552
H       2.758663    5.080282    1.422722
N      -1.566272    5.999944    2.126725
C      -0.982141    7.209528    2.054698
C      -1.726036    8.362994    2.206496
H      -1.322085    9.198108    2.138342
C      -3.070784    8.259345    2.458977
H      -3.582506    9.027828    2.565081
C      -3.659126    7.034806    2.555013
H      -4.568708    6.953367    2.732369
C      -2.870495    5.921319    2.383852
H      -3.263319    5.080282    2.449683
Br     -0.353960    3.179655    3.908728
