23
7225159
Zn      4.874191    6.355089    1.488420
Br      2.776556    5.265934    1.723231
Br      6.722217    5.253792    2.463412
N       4.404099    8.309101    2.015779
N       5.442639    7.334896   -0.245888
C       3.885501    8.714308    3.182278
H       3.800789    8.080470    3.884696
C       3.458748   10.038209    3.416417
H       3.066637   10.290165    4.243877
C       3.632818   10.962885    2.390905
H       3.393339   11.872550    2.524339
C       4.148971   10.558882    1.189998
H       4.227671   11.178961    0.474992
C       4.564773    9.221111    1.012925
C       5.152293    8.681745   -0.226586
C       5.479968    9.489784   -1.333502
H       5.278065   10.418003   -1.317557
C       6.099126    8.933049   -2.450489
H       6.291321    9.473366   -3.207454
C       6.437286    7.570052   -2.453006
H       6.904145    7.178816   -3.181439
C       6.049019    6.796613   -1.315040
H       6.227666    5.863849   -1.315879
