30
7226865
C      -0.497046    2.399119    0.584482
H      -0.104136    3.256666    0.470093
C      -1.327406    1.918792   -0.408981
H      -1.500359    2.435584   -1.186200
C      -1.896764    0.686540   -0.250716
H      -2.456254    0.325667   -0.927649
C      -1.651165   -0.023891    0.897877
H      -2.058932   -0.871378    1.037338
C      -0.801051    0.510504    1.852165
C      -0.523114   -0.201184    3.094776
H      -0.888366   -1.065018    3.243639
C       1.141477    0.340755    6.126873
C       1.273951   -0.482842    7.369485
C       1.948048    0.017604    8.466367
H       2.331686    0.886467    8.453832
C       2.043947   -0.792162    9.586755
H       2.510986   -0.492901   10.357707
C       1.459129   -2.025671    9.564817
H       1.517721   -2.602818   10.316965
C       0.775509   -2.419238    8.420925
H       0.346504   -3.266725    8.420925
Br      3.641157    2.274385    2.883235
Br      0.019007    4.562350    4.217044
Hg      1.231188    2.483616    3.493822
N      -0.220565    1.717608    1.692333
N       0.207806    0.342013    3.969148
N       0.435490   -0.290459    5.145947
N       0.692124   -1.671085    7.324042
O       1.629094    1.448525    5.984279
H       0.170014   -0.980772    5.359055
