30
7227658
Br      3.599793    2.937354    7.466665
Zn      5.621004    2.182964    8.451374
Br      7.597484    3.337969    7.875672
O       5.960900    0.433153    6.968584
N       5.348193    2.738809   10.505138
N       5.543275    0.350253    9.508977
C       5.575724   -3.174034    7.118554
H       5.178234   -3.263151    7.976561
N       6.261753   -4.196813    5.057154
N       5.705030   -0.810347    8.823662
H       5.679165   -1.595825    9.219945
C       6.633830   -1.845561    5.429806
H       6.971158   -1.019670    5.102600
C       5.702195   -4.268314    6.280542
H       5.379193   -5.109749    6.584117
C       5.182871    1.709813   11.363146
C       5.911276   -0.678744    7.473027
C       4.921537    1.907736   12.701056
H       4.818735    1.166818   13.286391
C       5.270050    3.982309   10.975952
H       5.406135    4.708720   10.379709
C       6.048452   -1.928461    6.675007
C       6.716629   -3.015487    4.659053
H       7.122539   -2.957457    3.802864
C       4.808537    3.216520   13.184594
H       4.607457    3.380248   14.098953
C       4.995647    4.255879   12.313862
H       4.937870    5.153271   12.617436
C       5.342562    0.375123   10.777810
H       5.299463   -0.416572   11.301340
