30
7227656
Zn      1.899203    2.935291    0.643571
Cl     -0.030068    2.230634    1.569284
Cl      3.796643    1.902962    1.211119
O       2.193656    4.692961    2.110704
N       1.667363    2.357688   -1.417962
N       1.801470    4.755113   -0.443261
N       1.948426    5.938033    0.233515
H       1.924120    6.720532   -0.168740
N       2.414982    9.326828    4.031620
C       1.626598    1.107523   -1.885173
H       1.773537    0.391250   -1.279159
C       1.379787    0.806953   -3.220579
H       1.361472   -0.094756   -3.518142
C       1.162078    1.843154   -4.098753
H       0.972531    1.662812   -5.011402
C       1.220149    3.149358   -3.643336
H       1.086300    3.877857   -4.236649
C       1.479271    3.367398   -2.293415
C       1.599288    4.726584   -1.712804
H       1.531518    5.515197   -2.237168
C       2.136724    5.804559    1.600310
C       2.255385    7.070008    2.389579
C       2.755878    6.973215    3.690511
H       3.048400    6.138752    4.037063
C       2.817089    8.115379    4.459821
H       3.163061    8.044058    5.341625
C       1.954388    9.408338    2.774234
H       1.679922   10.258084    2.451269
C       1.856481    8.318136    1.914203
H       1.526904    8.422062    1.028771
