24
7228281
Pt      0.966520   14.207143    4.160235
C       2.374763   14.018585    8.169557
H       2.436009   14.984400    8.324748
H       3.260264   13.612426    8.276513
H       1.753765   13.621935    8.816536
S       0.855591   16.422663    3.751222
Cl      0.272224   13.547223    2.043595
N       1.769754   16.045031    6.310409
N       1.585247   14.729566    5.935014
N       1.639552   18.192374    5.560668
H       1.934199   18.471387    6.340818
H       1.451641   18.774308    4.927320
C       1.683415   12.417043    6.257979
C       1.770084   10.024918    6.367032
H       1.943535    9.223468    6.846238
N       1.252039   12.353606    4.966118
C       1.475979   16.875279    5.334172
C       1.880373   13.768641    6.792760
C       1.941262   11.263634    6.981506
H       2.231165   11.316747    7.884341
C       1.346433    9.974658    5.057345
H       1.234209    9.137890    4.621132
C       1.086771   11.155099    4.382053
H       0.783159   11.117064    3.482364
