25
7228768
I       2.050597    0.424989    6.989595
I      -1.169152   -3.629926    6.548761
C       0.793039   -1.126675    6.872799
C       0.056802   -2.062602    6.757533
Fe      1.452475    0.260293    2.361090
C       0.966244    2.034398    3.243269
H       1.477956    2.484177    3.974819
C      -0.079859    1.088080    3.417358
H      -0.436314    0.760023    4.292737
C      -0.530605    0.685060    2.124607
H      -1.255811    0.025235    1.933007
C       0.247147    1.385706    1.156064
H       0.164290    1.300352    0.163209
C       1.175842    2.213270    1.850722
H       1.857500    2.813718    1.431479
C       3.112395   -0.421575    3.327253
H       3.558249    0.017071    4.107426
C       2.068163   -1.386448    3.397807
H       1.653988   -1.744193    4.234934
C       1.707176   -1.738998    2.066124
H       0.993089   -2.389174    1.803799
C       2.533834   -0.999015    1.170345
H       2.503372   -1.037610    0.171709
C       3.405586   -0.185552    1.955788
H       4.092647    0.450521    1.603188
