27
7232977
N       4.272823    6.675413   -0.224462
C       5.205393    7.103604    0.613617
C       4.068583    7.210499   -1.420357
Zn      3.068502    5.099940    0.462147
H       5.305967    6.667662    1.508753
C       6.022672    8.146032    0.254875
C       4.863145    8.267615   -1.824785
H       3.344626    6.838612   -2.019825
Cl      1.248902    5.099940   -0.679931
Cl      2.968888    5.099940    2.634566
C       7.061149    8.632974    1.149152
C       5.841470    8.722529   -0.971566
H       4.741775    8.691114   -2.726599
N       7.898052    9.013838    1.860553
H       6.422620    9.480380   -1.250242
N       4.272823    3.524467   -0.224462
C       5.205393    3.096276    0.613617
C       4.068583    2.989381   -1.420357
H       5.305967    3.532218    1.508753
C       6.022672    2.053848    0.254875
C       4.863145    1.932265   -1.824785
H       3.344626    3.361268   -2.019825
C       7.061149    1.566906    1.149152
C       5.841470    1.477351   -0.971566
H       4.741775    1.508766   -2.726599
N       7.898052    1.186042    1.860553
H       6.422620    0.719500   -1.250242
