26
7233107
Cu      2.529648    3.906400    4.602815
O       1.656780    5.052772    5.976479
C       1.247072    6.136173    5.504967
C       1.268173    6.347900    4.019178
H       0.416511    6.705726    3.724598
H       1.963124    6.983081    3.786276
N       1.524619    5.064257    3.364658
H       1.995052    5.193168    2.619922
H       0.753893    4.677523    3.144643
N       0.833334    7.111992    6.269955
H       0.837385    7.019801    7.124237
H       0.556847    7.846395    5.917379
Cl      0.349294    2.101643    4.372674
O       3.402515    2.760028    3.229151
C       3.812223    1.676627    3.700663
C       3.791122    1.464900    5.186452
H       4.642784    1.107074    5.481032
H       3.096172    0.829719    5.419355
N       3.534677    2.748543    5.840973
H       3.064244    2.619632    6.585708
H       4.305402    3.135277    6.060987
N       4.225962    0.700808    2.935676
H       4.221910    0.792999    2.081393
H       4.502448   -0.033595    3.288251
Cl      4.710001    5.711157    4.832956
Br      0.192847    2.131332    4.403053
