26
7236469
C      -1.397716    2.694005    4.142757
C      -3.306954    2.849263    5.256511
H      -4.194138    3.040483    5.458161
C      -2.404686    2.256959    6.077575
H      -2.550521    1.971176    6.951391
C      -3.294531    3.714792    2.893719
H      -2.667158    4.290543    2.449578
H      -4.059405    4.225852    3.167690
H      -3.572663    3.021456    2.291321
C      -0.007640    1.557344    5.846996
C       0.517605    0.454931    5.197803
H       0.111260    0.117966    4.432894
C       1.656126   -0.134900    5.709160
H       2.020925   -0.875233    5.278633
C       2.262990    0.355801    6.849290
H       3.021574   -0.058983    7.192180
C       1.730535    1.474577    7.478063
H       2.138275    1.817059    8.241270
C       0.596611    2.080771    6.971811
H       0.244161    2.834993    7.385321
N      -2.662284    3.117351    4.066181
N      -1.222555    2.159922    5.357761
Au      0.017674    2.926702    2.748309
Cl      0.885243    4.633216    3.988329
Cl      1.640197    3.201830    1.131111
Cl     -0.881953    1.185940    1.591333
