24
7236466
Au      2.905233    5.433833    7.101533
C       4.915297    5.456512    7.106481
C       7.115593    5.626603    6.982401
H       7.964407    5.786866    6.637943
C       6.835665    5.207046    8.230821
H       7.442176    5.029395    8.912124
C       4.596239    4.638564    9.307964
C       3.259808    4.680142    8.961794
C       2.326715    4.217495    9.878888
H       1.420711    4.225811    9.669549
C       2.751122    3.745777   11.106375
H       2.123541    3.441125   11.721070
C       4.081533    3.718562   11.431802
H       4.349421    3.391232   12.259641
C       5.028172    4.177429   10.533548
H       5.932671    4.173650   10.748596
C       5.863441    6.206423    4.898528
H       5.178671    5.710514    4.443692
H       6.709245    6.046160    4.474141
H       5.660267    7.143813    4.860466
Cl      2.546744    6.319968    4.945153
Cl      0.615240    5.371618    7.394608
N       5.931166    5.775527    6.304904
N       5.463114    5.095920    8.289246
