28
7238558
Fe      4.006256    3.199039    3.703298
O       1.525762    2.208454    0.959214
C       3.203235    3.583419    1.879601
C       2.419055    4.207924    2.903664
H       1.452987    4.034712    3.095060
C       3.259436    5.118794    3.597283
H       2.990583    5.685875    4.375774
C       4.561345    5.057793    3.019132
H       5.360254    5.576676    3.322742
C       4.541996    4.103808    1.962542
H       5.312636    3.852086    1.377276
C       4.123277    1.164851    3.932911
H       3.853360    0.481981    3.254641
C       3.282650    1.725719    4.930547
H       2.318456    1.506192    5.078134
C       4.046933    2.662194    5.676411
H       3.716394    3.213837    6.442197
C       5.364428    2.679139    5.141764
H       6.122351    3.245844    5.465398
C       5.415420    1.752078    4.058747
H       6.212712    1.551378    3.489439
C       2.710277    2.539251    0.977104
C       3.678498    1.929809    0.082942
C       4.483994    1.438225   -0.650928
C       5.488909    0.828970   -1.519171
H       6.381426    1.122113   -1.242090
H       5.327940    1.101403   -2.446571
H       5.430180   -0.146854   -1.451476
