27
7238648
Cr     -0.567784   -2.773943    9.358658
C      -0.185467   -0.515848    9.403906
C      -0.391219   -0.963257   10.729500
C      -1.570161   -1.706202   11.037643
H      -1.708636   -2.020937   11.923774
C      -2.522968   -1.976426   10.052674
H      -3.317147   -2.447552   10.274365
C      -2.301989   -1.547189    8.724931
H      -2.943470   -1.736230    8.051138
C      -1.140336   -0.844619    8.405540
H      -0.985621   -0.582528    7.506391
S       1.229912    0.490397    9.094626
C       1.215851    0.685825    7.305681
H       1.219540   -0.196970    6.880753
H       2.010193    1.186211    7.026103
H       0.410117    1.175066    7.036214
S       0.801823   -0.486371   11.935149
C       0.361151   -1.440424   13.399521
H      -0.549064   -1.208307   13.679351
H       0.987992   -1.235084   14.124249
H       0.404506   -2.397011   13.191480
C      -1.396227   -4.337095    8.830847
O      -1.919112   -5.304000    8.484914
C       0.706925   -3.069222    8.077807
O       1.518338   -3.263676    7.264730
C       0.481082   -3.711777   10.550277
O       1.153655   -4.247530   11.318105
