24
7238107
C       1.068976    7.543607    2.996009
H       1.025926    8.376708    2.500499
H       0.407014    7.576986    3.704002
C       2.445645    7.373558    3.590961
H       3.116375    7.433904    2.892317
H       2.615165    8.075828    4.237759
Cl      0.908505    2.718554    1.978641
Pt      1.795252    4.473309    3.189113
Se      0.688357    6.038700    1.801005
Cl      2.986332    3.056587    4.603994
N       2.522997    6.056325    4.248808
H       2.074515    6.103942    5.027345
H       3.385449    5.889697    4.445992
C       2.021507    6.408823    0.428366
C       3.121864    7.906750   -1.070914
H       3.266292    8.770246   -1.384539
C       3.783531    6.853649   -1.639518
H       4.389621    7.001833   -2.329662
C       2.225846    7.683687   -0.016149
H       1.775872    8.396604    0.376520
C       2.668690    5.315898   -0.148738
H       2.517765    4.448175    0.148738
C       3.554193    5.585500   -1.194154
H       4.001560    4.877921   -1.598721
