27
7238108
Pt      5.130292    0.856628    4.248885
Se      6.640971    1.482021    5.910059
Cl      3.542829    0.369589    2.688715
Cl      6.351426   -0.892510    3.427784
C       5.612080    2.815560    6.874884
H       5.055245    2.403947    7.554305
H       6.193121    3.469614    7.294125
C       8.928589    5.220584    7.559986
H       8.662545    6.053507    7.876974
C       4.777644    3.445909    5.802352
H       4.130237    4.046088    6.203415
H       5.344677    3.965274    5.210414
C       7.785905    2.720738    4.855933
H       8.367106    2.239087    4.246953
H       7.254773    3.360785    4.357161
C       8.274018    4.618251    6.493135
H       7.575323    5.094515    6.104569
C       8.561659    3.381258    5.953461
C      10.259138    3.387723    7.538399
H      10.997921    2.941630    7.884927
C       9.930441    4.578382    8.105341
H      10.390726    4.917801    8.838162
N       4.075285    2.406102    5.027493
H       3.653871    2.815560    4.345799
H       3.436919    2.058063    5.559214
C       9.582413    2.776769    6.478365
H       9.860043    1.950311    6.154560
