25
7238557
Fe      6.584237    8.056057    3.791302
O       7.496735    5.360729    1.290859
C       7.872519    6.578053    3.283563
C       6.826133    6.053985    4.115574
H       6.211831    5.368554    3.878272
C       6.873407    6.739606    5.349834
H       6.294941    6.590936    6.088887
C       7.935433    7.692892    5.301719
H       8.185926    8.282803    6.002838
C       8.551879    7.606247    4.026858
H       9.280659    8.132033    3.719505
C       5.801551    8.877772    2.083480
H       6.021481    8.633964    1.191357
C       4.774021    8.307995    2.864225
H       4.183222    7.614835    2.593594
C       4.780902    8.955161    4.128057
H       4.193053    8.773283    4.851476
C       5.820676    9.922378    4.119331
H       6.053653   10.500457    4.835720
C       6.447578    9.870372    2.849439
H       7.175196   10.409804    2.564507
C       8.068946    6.276227    1.875508
C       9.012114    7.136952    1.165057
C       9.793531    7.839845    0.617009
H      10.420076    8.403037    0.178158
