28
7239785
Br      1.254754   -0.589541    2.238202
C       4.793341   -2.229227    2.257231
H       4.016056   -2.736244    1.912625
H       5.160046   -2.699890    3.047421
C       5.874808   -2.065271    1.161465
H       6.784960   -2.203052    1.526489
H       5.725807   -2.690196    0.408360
C       4.905352   -0.072102    1.678860
C       4.526425    1.346310    1.713445
C       5.018649    2.322294    0.871029
H       5.678838    2.115803    0.220848
C       4.523672    3.617950    0.997843
H       4.842223    4.312796    0.433362
C       3.562664    3.878487    1.956378
H       3.209230    4.753891    2.057079
C       3.120730    2.843731    2.769070
H       2.455666    3.029500    3.421057
C       2.790068   -1.522869    4.835733
C       1.863068    0.871405    4.857956
C       4.378123    0.449457    5.076165
Mn      3.111902   -0.003393    3.891504
N       4.410946   -0.844746    2.598781
N       5.665307   -0.671337    0.753244
N       3.592614    1.595456    2.671702
O       2.604776   -2.458379    5.464246
O       1.070640    1.417927    5.477997
O       5.165127    0.739683    5.857049
H       6.066229   -0.298103    0.100007
