28
7240003
Re      3.383154    6.146984    2.811479
Cl      1.904324    7.547654   -0.061477
Cl      1.102664    5.804788    3.671288
O       6.115436    6.462349    1.523931
O       4.566720    6.934078    5.517323
O       3.091551    9.160768    2.459070
N       2.487616    5.218702    1.018263
N       3.609647    4.021237    3.097217
C       2.468961    3.870592    1.007873
C       1.930898    5.813585   -0.034635
C       1.353387    5.176917   -1.086667
H       1.001875    5.660070   -1.799581
C       1.297934    3.817811   -1.073679
H       0.899695    3.350844   -1.771561
C       1.856470    3.141557    0.014720
H       1.815330    2.213924    0.065841
C       3.124690    3.205334    2.154284
C       4.254414    3.474736    4.140590
H       4.593842    4.036961    4.798486
C       4.429787    2.127726    4.274800
H       4.882981    1.787356    5.012538
C       3.930335    1.270038    3.308489
H       4.040074    0.349992    3.384573
C       3.274005    1.809942    2.241737
H       2.927087    1.258635    1.577165
C       5.126338    6.339194    2.013147
C       4.113774    6.648182    4.497328
C       3.163746    8.031478    2.576829
