29
7240439
Fe      2.914277    3.237147    9.232284
S      -2.165048    3.299453    4.332635
O       1.232726    0.877722    9.027908
O       0.996961    4.843461   10.714955
N      -0.864272    3.367562    5.277360
N      -1.904943    4.529566    3.346640
C       1.899161    1.802824    9.121573
C       1.731959    4.200272   10.118513
C       2.156037    3.852027    7.582739
C       4.509091    4.478632    9.797146
H       4.428768    5.387151    9.981963
C       4.793471    3.911252    8.553662
H       4.951406    4.381502    7.765942
C       4.802738    2.505239    8.686444
H       4.950255    1.888109    8.008180
C       4.546455    2.210296   10.050149
H       4.506869    1.361002   10.426962
C       4.364333    3.414942   10.726618
H       4.179195    3.507334   11.634559
C       1.662092    4.257129    6.558346
C       1.100726    4.863598    5.385918
C       1.681048    5.934395    4.736184
H       2.509295    6.230523    5.038532
C       1.094801    6.609566    3.638940
H       1.530960    7.335670    3.254949
C      -0.103467    6.199725    3.145494
H      -0.498869    6.643917    2.431343
C      -0.731682    5.094578    3.731528
C      -0.140592    4.417038    4.843127
