25
7240748
Zn      5.400963    1.036707    8.403727
Cl      6.343443    1.158433   10.434658
Cl      3.175562    0.746741    8.352828
Cl      6.424547   -0.551978    7.166103
N       5.794769    2.794457    7.401316
N       6.435291    4.192061    9.131882
N       7.892195    3.788559    7.418083
H       8.502780    4.251774    7.808867
H       8.053238    3.419328    6.658322
N       5.541360    4.150734    5.527034
H       5.294124    4.241728    4.708063
H       5.826587    4.832058    5.967748
N       5.046178    1.934855    5.420446
H       4.801119    2.035573    4.602529
H       5.004874    1.158824    5.789374
C       6.707911    3.645793    7.984559
C       5.483238    2.965024    6.106684
C       5.073909    4.313787    9.632489
H       4.833909    5.241391    9.685053
H       5.017991    3.918476   10.505785
H       4.472789    3.860310    9.037126
C       7.468206    4.847281    9.923512
H       8.263532    4.309129    9.920638
H       7.159620    4.957249   10.825586
H       7.663940    5.708093    9.545158
