20
7241890
Au      0.858255    3.386294    8.086602
Cl      2.077133    2.569013    6.346019
Cl      0.951305    5.444423    7.161553
N       0.418758   -2.271596   10.521553
C       0.521910   -1.046012    9.980971
C       0.047497   -0.769918    8.671456
C       0.217770    0.525250    8.163495
H      -0.056076    0.708190    7.293204
N       0.751835    1.492699    8.883495
C       1.086634    0.005612   10.689320
H       1.410540   -0.144781   11.549126
Cl     -0.400899    4.155988    9.817864
C      -0.588337   -1.787872    7.929320
H      -0.919867   -1.626256    7.075340
C       1.181416    1.249153   10.153398
H       1.540149    1.942753   10.657864
C      -0.169128   -3.209864    9.792233
H      -0.236107   -4.062835   10.156893
C      -0.705410   -3.002233    8.501359
H      -1.130461   -3.695833    8.051650
