20
7241888
N       5.986551   -2.548173    4.861013
C       6.380818   -2.251758    6.060760
H       7.189919   -1.803415    6.151482
N       5.688931   -2.552633    7.200335
C       4.556338   -3.227433    7.090173
H       4.096988   -3.480488    7.857604
C       4.042828   -3.564892    5.838585
C       4.805835   -3.187724    4.717525
C       4.309869   -3.464981    3.423353
H       4.803126   -3.227282    2.671659
C       3.111029   -4.078970    3.286345
H       2.786957   -4.257845    2.432821
C       2.341750   -4.452704    4.408330
H       1.518605   -4.868025    4.287985
C       2.800664   -4.207860    5.669176
H       2.298817   -4.461685    6.409761
Cl      4.181744   -1.308970    9.501794
Cl      6.962877   -1.087781   11.044988
Cl      8.500918   -2.353003    8.517742
Au      6.329765   -1.860772    9.018748
