17
7700514
Re      2.662079    2.202440    3.852664
C       2.399728    3.362540    5.394586
O       2.207297    3.941660    6.325382
C       3.104906    0.728862    5.005390
O       3.336630   -0.158897    5.705691
C       0.810158    1.684850    3.870549
O      -0.298702    1.411027    3.923450
Te      3.132611    0.588008    1.711078
Te      2.069291    4.214605    2.090449
Te      5.248619    3.044585    3.757443
I       4.730897    3.059209    0.487944
I       5.529213   -0.528687    2.501058
I       0.466066    2.794301    0.368288
I       4.739055    5.743067    3.751020
I       1.463800   -1.525868    2.537332
I       0.032948    5.423112    3.522540
I       5.905892    2.830664    6.431687
