27
7703541
Au     10.139714   14.765241    4.006080
Cl     10.481311   16.412095    2.409203
Cl     11.789302   13.436156    3.167906
Cl      8.426845   15.929874    4.945651
Cl     10.389906   10.164909    6.067088
Cl      8.798716   13.257057    8.565070
N       9.078204   12.364490    5.392164
N      10.552404   13.445922    6.593842
C       9.891670   13.408813    5.444478
C       8.125873   12.007854    4.322809
H       8.110404   11.024136    4.213243
H       8.429501   12.405349    3.468448
C       9.287576   11.513720    6.541528
H       8.426181   11.179095    6.923426
C      12.880890   13.931462    7.236993
H      13.224987   13.628771    6.370716
H      12.857492   13.176101    7.861058
H      13.465785   14.632059    7.594050
C       6.738195   12.494957    4.631306
H       6.437047   12.107072    5.479536
H       6.129375   12.222988    3.913339
H       6.743410   13.472308    4.702776
C      10.012567   12.447106    7.496254
H      10.726367   11.979339    8.017438
C      11.486572   14.481455    7.060050
H      11.166732   14.846236    7.923273
H      11.507821   15.222891    6.404551
