29
7703904
W       3.870813    9.005928    7.109476
P       3.441836   10.166527    4.929618
O       4.722377   12.494194    4.474380
O       2.549220    6.314774    5.992046
O       1.316526    9.434634    3.457631
O       4.633962    7.458679    9.736337
O       6.760057    8.258249    6.001990
O       1.091773    9.840954    8.428888
O       5.157218   11.615043    8.392221
C       5.711191    8.505534    6.371773
C       2.075171    9.534273    7.931700
C       3.736333   12.022656    4.974520
C       4.339032    8.017692    8.781581
C       4.697992   10.691119    7.925485
C       3.021193    7.282694    6.354682
C       1.663734   10.204571    4.317766
C       2.650985   12.817179    5.661727
H       2.902770   13.774359    5.677699
H       2.557903   12.508324    6.597450
C       4.369160    9.566623    3.489637
H       5.321923    9.513776    3.713589
H       4.244287   10.185756    2.739816
H       4.042790    8.678181    3.237501
C       1.306597   12.652840    4.931482
H       0.643085   13.261102    5.343200
H       1.420627   12.926665    3.986887
C       0.759266   11.226839    4.968771
H       0.612648   10.966459    5.913149
H      -0.119482   11.210483    4.513456
