25
7703544
Au      7.324053    9.654758    9.696660
Cl      7.800836    9.518490    4.031584
Cl      7.830410   10.105244   11.898895
Cl      6.094241   11.559885    9.576536
Cl      5.154065    7.447948    4.900583
Cl      8.588462    7.765372    9.706929
N       5.999159    8.445399    7.280170
N       7.659784    9.735207    6.738917
C       6.940092    9.260966    7.771148
C       7.156274    9.199026    5.561211
C       6.121452    8.402843    5.903505
C       3.722743    8.568113    8.221479
H       3.365312    8.783256    7.334916
H       3.939418    9.398516    8.696134
H       3.053151    8.066458    8.731273
C       8.781801   10.675528    6.833048
H       9.467654   10.432141    6.162173
H       9.194034   10.601623    7.730404
C       4.973664    7.732726    8.071725
H       5.337604    7.522189    8.968397
H       4.746944    6.878902    7.625299
C       8.345872   12.097960    6.604139
H       7.939155   12.174941    5.715425
H       9.124003   12.690543    6.659558
H       7.690825   12.352599    7.286363
