30
7704116
Au      4.415354    4.698601    4.411115
Cl      5.991082    5.917299    3.282593
C       3.166004    3.433987    5.279034
N       2.749312    2.278584    4.708554
C       2.028076    1.504096    5.615103
C       1.990052    2.216441    6.756063
H       1.567664    1.962390    7.568071
N       2.682581    3.391408    6.519260
H       2.812703    4.177404    7.056253
C       2.990541    1.950606    3.324811
C       4.153558    1.273936    2.998310
C       4.357410    1.009252    1.644466
H       5.134782    0.535951    1.373757
C       3.451064    1.421238    0.694862
H       3.614644    1.236097   -0.222284
C       2.324852    2.088702    1.057242
H       1.709777    2.358691    0.385367
C       2.053382    2.385608    2.387166
C       5.139401    0.868854    4.044788
H       5.773288    0.225315    3.664575
H       4.666424    0.456776    4.796984
H       5.626193    1.659914    4.358372
C       0.845562    3.167002    2.809345
H       0.333321    3.429303    2.016402
H       1.129509    3.969385    3.295270
H       0.285727    2.613018    3.392072
C       1.505571    0.151906    5.275446
H       0.851568    0.227812    4.549095
H       1.073982   -0.238434    6.063761
H       2.246032   -0.422113    4.989692
