26
7706399
Br     -0.467814   10.377656   10.284299
Mn      0.713138    9.720697    8.141671
O       2.059607    8.827929    5.689800
O      -1.133875    7.412780    8.030661
O       2.644465    8.039489    9.637269
N      -0.505271   11.009825    7.124210
N       1.720345   11.489116    8.368317
N      -0.855568   13.329546    6.673826
N       1.504636   13.844696    8.037268
C      -1.606276   10.707464    6.405815
H      -1.859734    9.798316    6.302470
C      -2.374270   11.698215    5.815215
H      -3.143721   11.484984    5.300736
C      -1.976432   13.014495    6.003404
H      -2.512435   13.713215    5.646982
C      -0.171159   12.316070    7.186587
C       1.093231   12.590393    7.906699
C       2.660875   14.025463    8.692361
H       2.994366   14.908492    8.802842
C       3.388512   12.959306    9.216223
H       4.205016   13.099345    9.681673
C       2.876836   11.689509    9.031867
H       3.349311   10.941945    9.379038
C       1.543595    9.199940    6.601273
C      -0.413277    8.304811    8.054316
C       1.892476    8.703236    9.082746
