26
7706397
Br      4.943859   -1.543251    3.506657
Mn      3.804956    0.371918    4.695499
N       2.724525    0.553608    2.989199
C       1.551251   -0.032686    2.717125
H       1.105760   -0.522757    3.398751
C       0.972798    0.062345    1.455866
H       0.146281   -0.377751    1.295449
N       1.543145    0.753827    0.460909
C       2.704022    1.354074    0.738608
H       3.132335    1.862808    0.060589
C       3.308664    1.258293    1.992078
C       4.581545    1.875659    2.353736
C       5.338847    2.671392    1.494960
H       5.025358    2.813510    0.610217
N       6.488354    3.241709    1.867582
C       6.863338    3.029746    3.139805
H       7.664285    3.431723    3.455012
C       6.119032    2.241814    4.012286
H       6.420520    2.128732    4.906262
N       4.986512    1.638468    3.621776
C       2.941119    1.725533    5.537252
O       2.356296    2.538701    6.074763
C       2.665045   -0.818061    5.480125
O       1.933835   -1.554689    5.959644
C       4.975029    0.160974    6.082985
O       5.712777    0.021206    6.943348
