25
8100185
Zn      7.450143    2.433156    8.005153
Br      8.599141    0.390825    8.021662
Br      6.808839    3.309869   10.106859
O       6.848340    4.124526    3.768474
N       8.414341    3.888885    6.969691
N       5.871480    2.355604    6.715232
C       9.444344    4.466690    7.616389
H       9.646758    4.174559    8.497686
C      10.219882    5.464936    7.059062
H      10.934872    5.853098    7.549361
C       9.935475    5.886992    5.773114
H      10.450323    6.575355    5.367221
C       8.888042    5.290626    5.085454
H       8.690423    5.552091    4.194227
C       8.131187    4.311748    5.709809
C       6.952409    3.762187    4.921607
C       5.830887    2.903550    5.475211
C       4.727512    2.705837    4.643565
H       4.711601    3.088351    3.774681
C       3.657498    1.949688    5.087937
H       2.903499    1.806851    4.528127
C       3.701512    1.406584    6.355266
H       2.975975    0.888496    6.684201
C       4.821833    1.628506    7.140986
H       4.849169    1.254062    8.013593
