27
8100478
V       5.757157   12.910046    2.024719
O       4.995600   12.766855    0.638870
O       4.625003   14.108522    2.953568
O       4.379295   12.729770    3.275411
O       7.148595   12.998433    3.771417
N       7.592498   12.352323    1.220755
C       8.397495   13.286875    0.743208
C       9.643680   12.977830    0.244793
C      10.045500   11.644816    0.283318
C       9.190275   10.676475    0.793771
C       7.959023   11.080087    1.257674
C       7.801553   14.659035    0.882057
O       6.677543   14.667276    1.516914
O       8.364915   15.632526    0.427786
C       6.902888   10.241339    1.939082
O       5.920058   10.908258    2.386130
O       7.042710    9.018139    2.026565
H      10.208400   13.597980   -0.064208
H      10.900725   11.414062   -0.048156
H       9.421050    9.724616    0.906938
H       7.072575   12.464815    4.446404
H       7.439100   13.721598    4.045104
N       8.707005    6.683613    2.102812
H       9.407475    6.448739    1.781772
H       8.891625    6.943211    2.905412
H       8.240025    5.995473    2.126890
H       8.362200    7.396477    1.773746
