27
8100784
Au      1.710079    0.476108    4.575184
Cl      1.424305   -0.573826    6.576653
P       2.055376    1.493470    2.642059
O       2.028254    0.852377   -0.017810
O       1.006771    3.536804    1.170984
O       4.533507    2.145295    3.530760
C       1.871034    0.391869    1.258919
C       1.566896   -0.935992    1.258919
H       1.398043   -1.485108    2.015828
C       1.555903   -1.326613   -0.106858
H       1.374651   -2.196462   -0.445241
C       1.848997   -0.238366   -0.823696
H       1.923634   -0.224638   -1.770946
C       0.936315    2.850409    2.369795
C       0.016165    3.413253    3.171228
H      -0.241726    3.132455    4.040561
C      -0.494836    4.533948    2.425450
H      -1.159052    5.146711    2.720422
C       0.122117    4.558907    1.262258
H      -0.031612    5.202870    0.581039
C       3.670424    2.231406    2.478879
C       4.202230    2.990184    1.506027
H       3.799523    3.232294    0.680105
C       5.518846    3.362085    1.981322
H       6.166159    3.876257    1.513819
C       5.643990    2.847913    3.189038
H       6.407761    2.955240    3.745589
