23
8101442
Nb      5.946905    7.029901    0.120475
Cl      3.637629    6.926311   -0.007623
Cl      8.158777    7.563757    0.545933
Cl      5.890429    8.663949   -1.546144
Cl      5.865144    5.763246    2.059771
Cl      6.401718    5.317261   -1.264285
N       5.578952    8.762520    1.522550
C       5.541241    9.606199    2.266856
C       5.576247   10.708379    3.239662
H       5.630272   10.346667    4.138055
H       4.758809   11.227275    3.172509
C       6.775147   11.608871    2.980126
H       6.619782   12.110723    2.165219
H       7.559233   11.055888    2.842190
S       7.106184   12.767107    4.326264
C       7.953886   11.709242    5.522852
H       8.024321   12.188368    6.361352
H       7.408612   10.923323    5.678936
C       9.337045   11.259469    5.109046
H       9.706768   10.702698    5.813241
H       9.262664   10.714060    4.310474
C      10.252239   12.346499    4.847695
N      10.973177   13.192071    4.648052
