23
8101441
Ta      5.933698    7.123893    0.122308
Cl      3.621888    7.253556   -0.020697
Cl      8.149080    6.599114    0.535773
Cl      5.873083    5.505234   -1.555666
Cl      5.858000    8.400244    2.055445
Cl      6.389972    8.845340   -1.263934
N       5.570076    5.405276    1.509954
C       5.527225    4.558462    2.231636
C       5.545544    3.471183    3.214276
H       4.730533    2.949704    3.140488
H       5.589255    3.839896    4.110530
C       6.771373    2.561188    2.964117
H       7.555638    3.116615    2.830939
H       6.627247    2.053854    2.150649
S       7.084413    1.419215    4.317856
C       7.920811    2.481033    5.494504
H       7.375782    3.269381    5.640281
H       7.987384    2.010476    6.340366
C       9.321080    2.927072    5.073373
H       9.249235    3.458924    4.265305
H       9.688915    3.495701    5.768060
C      10.242880    1.829420    4.830413
N      10.954856    0.978834    4.643243
