22
8101492
Nb      5.501034    5.620576    0.279152
Cl      3.882563    5.124793   -1.302673
Cl      7.106097    4.991258   -1.263650
Cl      7.138502    5.610708    1.917419
Cl      3.866224    5.715754    1.907804
Cl      5.584554    7.836243   -0.149190
N       5.394390    3.393291    0.746517
C       5.433604   -0.079580    0.369865
C       5.308791   -1.429257    0.675259
H       5.032742   -1.685504    1.524705
C       5.591810   -2.392175   -0.274854
H       5.516519   -3.293020   -0.055423
C       5.981740   -2.029290   -1.538278
H       6.159848   -2.677071   -2.181867
C       6.106293   -0.700304   -1.840278
H       6.380381   -0.452014   -2.693118
C       5.830803    0.283305   -0.901476
H       5.913930    1.182559   -1.126563
C       5.116586    0.929494    1.454578
H       4.202086    0.791025    1.747529
H       5.695852    0.760785    2.213537
C       5.270058    2.317370    1.055304
