25
8101758
Pt      0.592036    2.443830    0.306206
Cl     -1.209509    3.460421   -0.660059
Cl      0.857917    1.133768   -1.545744
O       0.631894    3.169061    3.154551
O       3.218607    2.231644    1.607406
N       0.380756    3.648326    1.890489
N       2.130616    1.490578    1.150549
C       0.413161    4.176151    4.013610
C       0.056708    5.255026    3.380177
C       0.040506    4.900327    2.046044
C       0.623792    3.870013    5.426221
C       4.155916    1.363900    2.060058
C       3.694147    0.107676    1.891890
C       2.430360    0.251245    1.310309
C       5.403500    1.929728    2.591189
H      -0.187138    6.215667    3.806202
H      -0.215492    5.567498    1.236035
H       0.022683    3.156394    5.695290
H       1.539228    3.591321    5.563558
H       0.441515    4.659639    5.957351
H       4.188320   -0.812850    2.166564
H       1.791985   -0.570051    1.028628
H       5.983546    1.209775    2.885483
H       5.848256    2.440663    1.897496
H       5.202591    2.508224    3.340938
