29
8102137
Zn      4.027930    1.713147    3.558665
Cl      5.694794    2.998007    2.723091
Cl      5.194584   -0.961550    2.204522
N       3.241017    0.716900    1.967088
N       1.919775   -0.776732   -1.677840
H       1.366026   -0.344995   -2.187867
H       2.410548   -1.281410   -2.185021
C       3.824180   -0.319465    1.365816
C       1.684308    0.757018    0.146190
H       0.931455    1.143412   -0.240566
C       3.431556   -0.865445    0.177791
H       3.881914   -1.594863   -0.182204
C       2.159080    1.218325    1.333930
H       1.709470    1.925072    1.736629
C       2.337215   -0.300639   -0.485829
Cl      2.361066    2.998007    4.394240
Cl      2.861276   -0.961550    4.912809
N       4.814843    0.716900    5.150243
N       6.136085   -0.776732    8.795170
H       6.689834   -0.344995    9.305198
H       5.645312   -1.281410    9.302351
C       4.231680   -0.319465    5.751515
C       6.371553    0.757018    6.971141
H       7.124405    1.143412    7.357897
C       4.624304   -0.865445    6.939540
H       4.173946   -1.594863    7.299534
C       5.896780    1.218325    5.783401
H       6.346390    1.925072    5.380702
C       5.718645   -0.300638    7.603160
