19
8102043
Pt      2.591861    1.975366    3.922186
Cl      3.876228    1.368022    2.120249
Cl      4.111699    3.603360    4.483737
C       1.553521    0.082178    3.863087
H       2.010087   -0.645822    3.390755
C       0.877197    0.995804    3.067880
H       0.936210    0.827581    2.104960
C      -0.321665    1.707369    3.492295
H      -1.141870    1.508208    3.102107
C      -0.247151    2.643231    4.438101
H      -1.011010    3.107295    4.693663
C       1.049196    2.944873    5.081569
H       1.208179    3.891370    5.282367
C       1.719502    2.040915    5.901876
H       2.281313    2.438270    6.600106
C       1.177465    0.685461    6.201932
H       0.895378    0.479533    7.064453
C       1.098077   -0.218497    5.257267
H       0.753061   -1.059613    5.454643
