19
8102155
Pt     -2.618096    1.946203    3.940692
Br     -4.241634    3.679311    4.554935
Br     -4.021872    1.278475    2.050395
C      -1.693607    2.018009    5.901709
H      -2.251745    2.399222    6.611204
C      -1.084923    2.938769    5.078188
H      -1.244639    3.882725    5.290115
C       0.230480    2.620083    4.392880
H       0.995940    3.088027    4.638209
C       0.312015    1.696297    3.462244
H       1.129935    1.505691    3.063729
C      -0.913979    0.957067    3.049907
H      -0.989724    0.771503    2.090477
C      -1.566139    0.047400    3.890705
H      -2.032265   -0.692839    3.448422
C      -1.090890   -0.213802    5.282053
H      -0.741608   -1.048840    5.493980
C      -1.151734    0.684772    6.185046
H      -0.847418    0.490131    7.041969
