24
8102338
Pt     14.514391    6.995432   11.765469
Cl     15.965907    5.838076   13.152138
Cl     15.805396    6.409086    9.954757
Cl     13.321322    7.636662   13.625226
N      11.068175    3.778532   12.348605
N      11.329543    5.594515   11.222031
C      11.300331    5.065449   12.437225
H      11.427171    5.539702   13.238452
C      10.942872    3.453228   11.007157
H      10.779901    2.600049   10.647819
C      11.098924    4.586430   10.329756
H      11.056644    4.679374    9.394991
C      10.880604    2.843134   13.470322
H      10.892904    3.334069   14.306754
H      11.596292    2.187759   13.469108
H      10.028083    2.389138   13.374418
C      11.530950    7.019657   10.923392
H      11.396422    7.541573   11.741615
H      10.860617    7.306830   10.269057
C      12.893140    7.300872   10.381957
H      13.160658    6.863558    9.602582
C      13.550404    8.522252   10.625967
H      13.275967    9.222907   11.168616
H      14.229192    8.603280    9.991055
