18
8102693
Pt      0.863490    2.008300    0.859598
I       2.656367    2.008300   -1.020668
I      -1.142448    2.008300   -0.793247
C       2.159049    1.309412    2.452561
H       2.734020    0.739858    1.956320
C      -0.205439    1.314232    2.623520
H      -0.848890    0.745481    2.216916
C       1.045285    0.878029    3.412701
H       1.069834   -0.061856    3.754618
C       1.121517    2.008300    4.448617
H       1.972991    2.008300    4.954100
H       0.352735    2.008300    5.073309
C       2.159049    2.707188    2.452561
H       2.734020    3.276742    1.956320
C      -0.205439    2.702368    2.623520
H      -0.848890    3.271119    2.216916
C       1.045285    3.138571    3.412701
H       1.069834    4.078456    3.754618
