21
8102848
Pt      1.095843    4.411288    3.245436
I       3.261648    4.032678    1.888268
I       1.384264    6.963256    2.937306
N      -0.623226    4.542707    4.353894
N      -2.399730    3.199646    5.207447
N      -0.976204    0.982987    4.401313
N       0.647744    2.415687    3.458728
C      -1.261716    5.654835    4.823251
H      -0.872488    6.513239    4.703251
C      -2.460239    5.530252    5.465835
H      -2.900752    6.303576    5.800676
C      -3.016008    4.317851    5.625513
H      -3.865576    4.249482    6.044548
C      -1.207079    3.362211    4.600669
C      -0.484520    2.175638    4.144861
C      -0.304691   -0.074446    3.970666
H      -0.636952   -0.943485    4.159377
C       0.866261    0.059253    3.254533
H       1.337845   -0.700397    2.933241
C       1.332664    1.359774    3.019371
H       2.144325    1.488914    2.543239
