29
8102875
Fe      1.705628    6.191262    3.282434
Cl      1.389516    8.947786   -2.598246
N       3.607881    8.943131   -1.233207
N       4.074117    7.484302    0.610137
C       4.358882    8.447941   -0.253024
H       5.201065    8.832209   -0.160617
C       2.843267    6.935631    0.494368
C       1.970469    7.367437   -0.501460
H       1.124861    6.994064   -0.602836
C       2.417986    8.368711   -1.324988
C       2.487467    5.872953    1.430328
C       3.346619    5.321312    2.433456
H       4.281058    5.567916    2.594908
C       2.598054    4.350739    3.154148
H       2.926948    3.819896    3.909050
C       1.292878    4.302211    2.617228
H       0.564054    3.728781    2.934916
C       1.208223    5.238120    1.557153
H       0.417716    5.417379    1.005423
C       2.334339    7.617013    4.599704
H       3.266427    7.836877    4.808089
C       1.545830    6.661296    5.262407
H       1.828801    6.099750    6.013762
C       0.277480    6.656344    4.654981
H      -0.477678    6.086875    4.910300
C       0.273763    7.608099    3.626196
H      -0.481535    7.819050    3.039213
C       1.550768    8.208269    3.584686
H       1.840180    8.909458    2.964119
