18
8103220
Pd     -0.795977    4.407653    4.045223
Cl     -1.909484    6.352168    4.525033
Cl     -2.349548    3.103123    5.103959
O       0.763978    6.766652    3.029952
H       0.130547    7.032980    3.423370
N       0.367504    2.861035    3.417097
N       0.672694    5.412683    3.129427
C       0.169433    1.554911    3.586473
H      -0.576672    1.264661    4.098187
C       1.013826    0.609206    3.040706
H       0.850749   -0.317361    3.177820
C       2.094037    1.022254    2.295092
H       2.680840    0.385937    1.903466
C       2.314495    2.382601    2.124820
H       3.059555    2.690394    1.622068
C       1.441590    3.274083    2.691199
C       1.593959    4.712575    2.581867
H       2.330899    5.109675    2.132885
