15
8103007
Pt      2.305446    1.632850    5.838734
O       0.651896    0.781155    6.618673
H      -0.030045    1.404251    6.597770
H       0.905371    0.411478    7.356805
C       1.832218    0.806628    4.071933
C       3.337527   -0.023513    6.336195
N       1.554722    0.344205    3.074678
N       3.963422   -0.929418    6.598938
O       3.958996    2.484545    5.058796
H       4.640937    1.861449    5.079699
H       3.705521    2.854222    4.320664
C       2.778675    2.459072    7.605536
C       1.273365    3.289213    5.341274
N       3.056170    2.921495    8.602791
N       0.647470    4.195118    5.078531
