29
8103158
Pt      0.000000    0.000000    0.000000
O       1.068136    1.096132   -1.258767
O       1.083040    0.417466    1.605731
C       2.823510    2.483656   -1.978809
H       2.409472    2.262363   -2.838382
H       3.765401    2.212759   -1.990002
H       2.763768    3.449783   -1.826593
C       2.107280    1.758399   -0.875989
C       2.611774    1.807819    0.418594
H       3.391514    2.335607    0.541710
C       2.118751    1.184687    1.543053
C       2.835609    1.353004    2.856290
H       2.221913    1.150108    3.592748
H       3.151320    2.276851    2.939860
H       3.601126    0.741878    2.891360
O      -1.068136   -1.096132    1.258767
O      -1.083040   -0.417466   -1.605731
C      -2.823510   -2.483656    1.978809
H      -2.409472   -2.262363    2.838382
H      -3.765401   -2.212759    1.990002
H      -2.763768   -3.449783    1.826593
C      -2.107280   -1.758399    0.875989
C      -2.611774   -1.807819   -0.418594
H      -3.391514   -2.335607   -0.541710
C      -2.118751   -1.184687   -1.543053
C      -2.835609   -1.353004   -2.856290
H      -2.221913   -1.150108   -3.592748
H      -3.151320   -2.276851   -2.939860
H      -3.601126   -0.741878   -2.891360
