13
8104482
W       1.519635    2.842500    0.407046
C       2.649179    2.842500    2.083673
O       3.274806    2.842500    3.056399
C       2.703763    1.401694   -0.401750
O       3.364147    0.581234   -0.833211
O      -0.378625    0.611251    1.632189
C       0.313649    1.417270    1.178122
C       0.398930    2.842500   -1.284049
O      -0.218217    2.842500   -2.236106
C       2.703763    4.283306   -0.401750
O       3.364147    5.103766   -0.833211
O      -0.378625    5.073749    1.632189
C       0.313649    4.267729    1.178122
