13
8104484
C       0.389416    2.853750   -1.303439
O       3.281187    2.853750    3.066878
Mo      1.527014    2.853750    0.416075
O       3.374935    5.126476   -0.845386
C       2.661007    2.853750    2.142338
O      -0.212736    2.853750   -2.247443
O      -0.366579    5.096798    1.651845
C       0.308888    4.301172    1.219744
C       2.723505    4.313728   -0.390578
O       3.374935    0.581023   -0.845386
O      -0.366579    0.610702    1.651845
C       0.308888    1.406328    1.219744
C       2.723505    1.393771   -0.390578
