23
8104124
H       3.510843    6.545674    5.740999
Zn      2.320794    2.959299    0.123291
C       6.546756    1.962643   -2.965928
H       8.297070    2.344753   -2.719958
Cl      0.601311    3.858428   -0.986890
C       2.565253    6.409648    4.091674
H       2.483641    7.621098    5.511359
H       6.029390    0.844272   -4.572387
H       1.231999    6.287897    4.062076
N       3.955033    2.731101   -0.962957
N       5.674261    1.242676   -3.663012
N       6.190246    2.720805   -1.916728
N       3.387541    5.476982    3.566564
H       8.051505    1.412579   -3.863054
C       3.059254    4.855801    2.478070
N       2.895215    6.921564    5.246507
N       7.815003    1.959590   -3.289465
H       1.318490    6.641537    2.653617
Cl      1.866245    0.912143    0.957905
C       4.977190    2.683210   -1.460510
N       1.506927    6.879013    3.450723
H       4.938649    1.306270   -3.526249
N       2.845377    4.234650    1.536546
